p cnf 5740 29910
-33 1 0
33 -1 0
-34 2 0
-34 1 0
34 -2 -1 0
-35 3 0
-35 1 0
35 -3 -1 0
-36 4 0
-36 1 0
36 -4 -1 0
-37 5 0
-37 1 0
37 -5 -1 0
-38 6 0
-38 1 0
38 -6 -1 0
-39 7 0
-39 1 0
39 -7 -1 0
-40 8 0
-40 1 0
40 -8 -1 0
-41 9 0
-41 1 0
41 -9 -1 0
-42 10 0
-42 1 0
42 -10 -1 0
-43 11 0
-43 1 0
43 -11 -1 0
-44 12 0
-44 1 0
44 -12 -1 0
-45 13 0
-45 1 0
45 -13 -1 0
-46 14 0
-46 1 0
46 -14 -1 0
-47 15 0
-47 1 0
47 -15 -1 0
-48 16 0
-48 1 0
48 -16 -1 0
-49 17 0
-49 1 0
49 -17 -1 0
-50 18 0
-50 1 0
50 -18 -1 0
-51 19 0
-51 1 0
51 -19 -1 0
-52 20 0
-52 1 0
52 -20 -1 0
-53 21 0
-53 1 0
53 -21 -1 0
-54 22 0
-54 1 0
54 -22 -1 0
-55 23 0
-55 1 0
55 -23 -1 0
-56 24 0
-56 1 0
56 -24 -1 0
-57 25 0
-57 1 0
57 -25 -1 0
-58 26 0
-58 1 0
58 -26 -1 0
-59 27 0
-59 1 0
59 -27 -1 0
-60 28 0
-60 1 0
60 -28 -1 0
-61 29 0
-61 1 0
61 -29 -1 0
-62 30 0
-62 1 0
62 -30 -1 0
-63 31 0
-63 1 0
63 -31 -1 0
-64 32 0
-64 1 0
64 -32 -1 0
-65 1 0
-65 2 0
65 -1 -2 0
-66 2 0
66 -2 0
-67 3 0
-67 2 0
67 -3 -2 0
-68 4 0
-68 2 0
68 -4 -2 0
-69 5 0
-69 2 0
69 -5 -2 0
-70 6 0
-70 2 0
70 -6 -2 0
-71 7 0
-71 2 0
71 -7 -2 0
-72 8 0
-72 2 0
72 -8 -2 0
-73 9 0
-73 2 0
73 -9 -2 0
-74 10 0
-74 2 0
74 -10 -2 0
-75 11 0
-75 2 0
75 -11 -2 0
-76 12 0
-76 2 0
76 -12 -2 0
-77 13 0
-77 2 0
77 -13 -2 0
-78 14 0
-78 2 0
78 -14 -2 0
-79 15 0
-79 2 0
79 -15 -2 0
-80 16 0
-80 2 0
80 -16 -2 0
-81 17 0
-81 2 0
81 -17 -2 0
-82 18 0
-82 2 0
82 -18 -2 0
-83 19 0
-83 2 0
83 -19 -2 0
-84 20 0
-84 2 0
84 -20 -2 0
-85 21 0
-85 2 0
85 -21 -2 0
-86 22 0
-86 2 0
86 -22 -2 0
-87 23 0
-87 2 0
87 -23 -2 0
-88 24 0
-88 2 0
88 -24 -2 0
-89 25 0
-89 2 0
89 -25 -2 0
-90 26 0
-90 2 0
90 -26 -2 0
-91 27 0
-91 2 0
91 -27 -2 0
-92 28 0
-92 2 0
92 -28 -2 0
-93 29 0
-93 2 0
93 -29 -2 0
-94 30 0
-94 2 0
94 -30 -2 0
-95 31 0
-95 2 0
95 -31 -2 0
-96 32 0
-96 2 0
96 -32 -2 0
-33 98 0
33 -98 0
-97 0
-100 97 34 65 0
-100 97 -34 -65 0
-100 -97 34 -65 0
100 97 34 -65 0
-100 -97 -34 65 0
100 97 -34 65 0
100 -97 34 65 0
100 -97 -34 -65 0
-99 97 34 0
-99 97 65 0
-99 34 65 0
99 -97 -34 0
99 -97 -65 0
99 -34 -65 0
-102 99 35 66 0
-102 99 -35 -66 0
-102 -99 35 -66 0
102 99 35 -66 0
-102 -99 -35 66 0
102 99 -35 66 0
102 -99 35 66 0
102 -99 -35 -66 0
-101 99 35 0
-101 99 66 0
-101 35 66 0
101 -99 -35 0
101 -99 -66 0
101 -35 -66 0
-104 101 36 67 0
-104 101 -36 -67 0
-104 -101 36 -67 0
104 101 36 -67 0
-104 -101 -36 67 0
104 101 -36 67 0
104 -101 36 67 0
104 -101 -36 -67 0
-103 101 36 0
-103 101 67 0
-103 36 67 0
103 -101 -36 0
103 -101 -67 0
103 -36 -67 0
-106 103 37 68 0
-106 103 -37 -68 0
-106 -103 37 -68 0
106 103 37 -68 0
-106 -103 -37 68 0
106 103 -37 68 0
106 -103 37 68 0
106 -103 -37 -68 0
-105 103 37 0
-105 103 68 0
-105 37 68 0
105 -103 -37 0
105 -103 -68 0
105 -37 -68 0
-108 105 38 69 0
-108 105 -38 -69 0
-108 -105 38 -69 0
108 105 38 -69 0
-108 -105 -38 69 0
108 105 -38 69 0
108 -105 38 69 0
108 -105 -38 -69 0
-107 105 38 0
-107 105 69 0
-107 38 69 0
107 -105 -38 0
107 -105 -69 0
107 -38 -69 0
-110 107 39 70 0
-110 107 -39 -70 0
-110 -107 39 -70 0
110 107 39 -70 0
-110 -107 -39 70 0
110 107 -39 70 0
110 -107 39 70 0
110 -107 -39 -70 0
-109 107 39 0
-109 107 70 0
-109 39 70 0
109 -107 -39 0
109 -107 -70 0
109 -39 -70 0
-112 109 40 71 0
-112 109 -40 -71 0
-112 -109 40 -71 0
112 109 40 -71 0
-112 -109 -40 71 0
112 109 -40 71 0
112 -109 40 71 0
112 -109 -40 -71 0
-111 109 40 0
-111 109 71 0
-111 40 71 0
111 -109 -40 0
111 -109 -71 0
111 -40 -71 0
-114 111 41 72 0
-114 111 -41 -72 0
-114 -111 41 -72 0
114 111 41 -72 0
-114 -111 -41 72 0
114 111 -41 72 0
114 -111 41 72 0
114 -111 -41 -72 0
-113 111 41 0
-113 111 72 0
-113 41 72 0
113 -111 -41 0
113 -111 -72 0
113 -41 -72 0
-116 113 42 73 0
-116 113 -42 -73 0
-116 -113 42 -73 0
116 113 42 -73 0
-116 -113 -42 73 0
116 113 -42 73 0
116 -113 42 73 0
116 -113 -42 -73 0
-115 113 42 0
-115 113 73 0
-115 42 73 0
115 -113 -42 0
115 -113 -73 0
115 -42 -73 0
-118 115 43 74 0
-118 115 -43 -74 0
-118 -115 43 -74 0
118 115 43 -74 0
-118 -115 -43 74 0
118 115 -43 74 0
118 -115 43 74 0
118 -115 -43 -74 0
-117 115 43 0
-117 115 74 0
-117 43 74 0
117 -115 -43 0
117 -115 -74 0
117 -43 -74 0
-120 117 44 75 0
-120 117 -44 -75 0
-120 -117 44 -75 0
120 117 44 -75 0
-120 -117 -44 75 0
120 117 -44 75 0
120 -117 44 75 0
120 -117 -44 -75 0
-119 117 44 0
-119 117 75 0
-119 44 75 0
119 -117 -44 0
119 -117 -75 0
119 -44 -75 0
-122 119 45 76 0
-122 119 -45 -76 0
-122 -119 45 -76 0
122 119 45 -76 0
-122 -119 -45 76 0
122 119 -45 76 0
122 -119 45 76 0
122 -119 -45 -76 0
-121 119 45 0
-121 119 76 0
-121 45 76 0
121 -119 -45 0
121 -119 -76 0
121 -45 -76 0
-124 121 46 77 0
-124 121 -46 -77 0
-124 -121 46 -77 0
124 121 46 -77 0
-124 -121 -46 77 0
124 121 -46 77 0
124 -121 46 77 0
124 -121 -46 -77 0
-123 121 46 0
-123 121 77 0
-123 46 77 0
123 -121 -46 0
123 -121 -77 0
123 -46 -77 0
-126 123 47 78 0
-126 123 -47 -78 0
-126 -123 47 -78 0
126 123 47 -78 0
-126 -123 -47 78 0
126 123 -47 78 0
126 -123 47 78 0
126 -123 -47 -78 0
-125 123 47 0
-125 123 78 0
-125 47 78 0
125 -123 -47 0
125 -123 -78 0
125 -47 -78 0
-128 125 48 79 0
-128 125 -48 -79 0
-128 -125 48 -79 0
128 125 48 -79 0
-128 -125 -48 79 0
128 125 -48 79 0
128 -125 48 79 0
128 -125 -48 -79 0
-127 125 48 0
-127 125 79 0
-127 48 79 0
127 -125 -48 0
127 -125 -79 0
127 -48 -79 0
-130 127 49 80 0
-130 127 -49 -80 0
-130 -127 49 -80 0
130 127 49 -80 0
-130 -127 -49 80 0
130 127 -49 80 0
130 -127 49 80 0
130 -127 -49 -80 0
-129 127 49 0
-129 127 80 0
-129 49 80 0
129 -127 -49 0
129 -127 -80 0
129 -49 -80 0
-132 129 50 81 0
-132 129 -50 -81 0
-132 -129 50 -81 0
132 129 50 -81 0
-132 -129 -50 81 0
132 129 -50 81 0
132 -129 50 81 0
132 -129 -50 -81 0
-131 129 50 0
-131 129 81 0
-131 50 81 0
131 -129 -50 0
131 -129 -81 0
131 -50 -81 0
-134 131 51 82 0
-134 131 -51 -82 0
-134 -131 51 -82 0
134 131 51 -82 0
-134 -131 -51 82 0
134 131 -51 82 0
134 -131 51 82 0
134 -131 -51 -82 0
-133 131 51 0
-133 131 82 0
-133 51 82 0
133 -131 -51 0
133 -131 -82 0
133 -51 -82 0
-136 133 52 83 0
-136 133 -52 -83 0
-136 -133 52 -83 0
136 133 52 -83 0
-136 -133 -52 83 0
136 133 -52 83 0
136 -133 52 83 0
136 -133 -52 -83 0
-135 133 52 0
-135 133 83 0
-135 52 83 0
135 -133 -52 0
135 -133 -83 0
135 -52 -83 0
-138 135 53 84 0
-138 135 -53 -84 0
-138 -135 53 -84 0
138 135 53 -84 0
-138 -135 -53 84 0
138 135 -53 84 0
138 -135 53 84 0
138 -135 -53 -84 0
-137 135 53 0
-137 135 84 0
-137 53 84 0
137 -135 -53 0
137 -135 -84 0
137 -53 -84 0
-140 137 54 85 0
-140 137 -54 -85 0
-140 -137 54 -85 0
140 137 54 -85 0
-140 -137 -54 85 0
140 137 -54 85 0
140 -137 54 85 0
140 -137 -54 -85 0
-139 137 54 0
-139 137 85 0
-139 54 85 0
139 -137 -54 0
139 -137 -85 0
139 -54 -85 0
-142 139 55 86 0
-142 139 -55 -86 0
-142 -139 55 -86 0
142 139 55 -86 0
-142 -139 -55 86 0
142 139 -55 86 0
142 -139 55 86 0
142 -139 -55 -86 0
-141 139 55 0
-141 139 86 0
-141 55 86 0
141 -139 -55 0
141 -139 -86 0
141 -55 -86 0
-144 141 56 87 0
-144 141 -56 -87 0
-144 -141 56 -87 0
144 141 56 -87 0
-144 -141 -56 87 0
144 141 -56 87 0
144 -141 56 87 0
144 -141 -56 -87 0
-143 141 56 0
-143 141 87 0
-143 56 87 0
143 -141 -56 0
143 -141 -87 0
143 -56 -87 0
-146 143 57 88 0
-146 143 -57 -88 0
-146 -143 57 -88 0
146 143 57 -88 0
-146 -143 -57 88 0
146 143 -57 88 0
146 -143 57 88 0
146 -143 -57 -88 0
-145 143 57 0
-145 143 88 0
-145 57 88 0
145 -143 -57 0
145 -143 -88 0
145 -57 -88 0
-148 145 58 89 0
-148 145 -58 -89 0
-148 -145 58 -89 0
148 145 58 -89 0
-148 -145 -58 89 0
148 145 -58 89 0
148 -145 58 89 0
148 -145 -58 -89 0
-147 145 58 0
-147 145 89 0
-147 58 89 0
147 -145 -58 0
147 -145 -89 0
147 -58 -89 0
-150 147 59 90 0
-150 147 -59 -90 0
-150 -147 59 -90 0
150 147 59 -90 0
-150 -147 -59 90 0
150 147 -59 90 0
150 -147 59 90 0
150 -147 -59 -90 0
-149 147 59 0
-149 147 90 0
-149 59 90 0
149 -147 -59 0
149 -147 -90 0
149 -59 -90 0
-152 149 60 91 0
-152 149 -60 -91 0
-152 -149 60 -91 0
152 149 60 -91 0
-152 -149 -60 91 0
152 149 -60 91 0
152 -149 60 91 0
152 -149 -60 -91 0
-151 149 60 0
-151 149 91 0
-151 60 91 0
151 -149 -60 0
151 -149 -91 0
151 -60 -91 0
-154 151 61 92 0
-154 151 -61 -92 0
-154 -151 61 -92 0
154 151 61 -92 0
-154 -151 -61 92 0
154 151 -61 92 0
154 -151 61 92 0
154 -151 -61 -92 0
-153 151 61 0
-153 151 92 0
-153 61 92 0
153 -151 -61 0
153 -151 -92 0
153 -61 -92 0
-156 153 62 93 0
-156 153 -62 -93 0
-156 -153 62 -93 0
156 153 62 -93 0
-156 -153 -62 93 0
156 153 -62 93 0
156 -153 62 93 0
156 -153 -62 -93 0
-155 153 62 0
-155 153 93 0
-155 62 93 0
155 -153 -62 0
155 -153 -93 0
155 -62 -93 0
-158 155 63 94 0
-158 155 -63 -94 0
-158 -155 63 -94 0
158 155 63 -94 0
-158 -155 -63 94 0
158 155 -63 94 0
158 -155 63 94 0
158 -155 -63 -94 0
-157 155 63 0
-157 155 94 0
-157 63 94 0
157 -155 -63 0
157 -155 -94 0
157 -63 -94 0
-160 157 64 95 0
-160 157 -64 -95 0
-160 -157 64 -95 0
160 157 64 -95 0
-160 -157 -64 95 0
160 157 -64 95 0
160 -157 64 95 0
160 -157 -64 -95 0
-159 157 64 0
-159 157 95 0
-159 64 95 0
159 -157 -64 0
159 -157 -95 0
159 -64 -95 0
-162 159 96 0
162 -159 96 0
162 159 -96 0
-162 -159 -96 0
-161 159 0
-161 96 0
161 -159 -96 0
-163 1 0
-163 3 0
163 -1 -3 0
-164 2 0
-164 3 0
164 -2 -3 0
-165 3 0
165 -3 0
-166 4 0
-166 3 0
166 -4 -3 0
-167 5 0
-167 3 0
167 -5 -3 0
-168 6 0
-168 3 0
168 -6 -3 0
-169 7 0
-169 3 0
169 -7 -3 0
-170 8 0
-170 3 0
170 -8 -3 0
-171 9 0
-171 3 0
171 -9 -3 0
-172 10 0
-172 3 0
172 -10 -3 0
-173 11 0
-173 3 0
173 -11 -3 0
-174 12 0
-174 3 0
174 -12 -3 0
-175 13 0
-175 3 0
175 -13 -3 0
-176 14 0
-176 3 0
176 -14 -3 0
-177 15 0
-177 3 0
177 -15 -3 0
-178 16 0
-178 3 0
178 -16 -3 0
-179 17 0
-179 3 0
179 -17 -3 0
-180 18 0
-180 3 0
180 -18 -3 0
-181 19 0
-181 3 0
181 -19 -3 0
-182 20 0
-182 3 0
182 -20 -3 0
-183 21 0
-183 3 0
183 -21 -3 0
-184 22 0
-184 3 0
184 -22 -3 0
-185 23 0
-185 3 0
185 -23 -3 0
-186 24 0
-186 3 0
186 -24 -3 0
-187 25 0
-187 3 0
187 -25 -3 0
-188 26 0
-188 3 0
188 -26 -3 0
-189 27 0
-189 3 0
189 -27 -3 0
-190 28 0
-190 3 0
190 -28 -3 0
-191 29 0
-191 3 0
191 -29 -3 0
-192 30 0
-192 3 0
192 -30 -3 0
-193 31 0
-193 3 0
193 -31 -3 0
-194 32 0
-194 3 0
194 -32 -3 0
-98 196 0
98 -196 0
-195 0
100 195 -198 0
-100 -195 -198 0
-100 195 198 0
100 -195 198 0
-197 195 0
-197 100 0
197 -195 -100 0
-200 197 102 163 0
-200 197 -102 -163 0
-200 -197 102 -163 0
200 197 102 -163 0
-200 -197 -102 163 0
200 197 -102 163 0
200 -197 102 163 0
200 -197 -102 -163 0
-199 197 102 0
-199 197 163 0
-199 102 163 0
199 -197 -102 0
199 -197 -163 0
199 -102 -163 0
-202 199 104 164 0
-202 199 -104 -164 0
-202 -199 104 -164 0
202 199 104 -164 0
-202 -199 -104 164 0
202 199 -104 164 0
202 -199 104 164 0
202 -199 -104 -164 0
-201 199 104 0
-201 199 164 0
-201 104 164 0
201 -199 -104 0
201 -199 -164 0
201 -104 -164 0
-204 201 106 165 0
-204 201 -106 -165 0
-204 -201 106 -165 0
204 201 106 -165 0
-204 -201 -106 165 0
204 201 -106 165 0
204 -201 106 165 0
204 -201 -106 -165 0
-203 201 106 0
-203 201 165 0
-203 106 165 0
203 -201 -106 0
203 -201 -165 0
203 -106 -165 0
-206 203 108 166 0
-206 203 -108 -166 0
-206 -203 108 -166 0
206 203 108 -166 0
-206 -203 -108 166 0
206 203 -108 166 0
206 -203 108 166 0
206 -203 -108 -166 0
-205 203 108 0
-205 203 166 0
-205 108 166 0
205 -203 -108 0
205 -203 -166 0
205 -108 -166 0
-208 205 110 167 0
-208 205 -110 -167 0
-208 -205 110 -167 0
208 205 110 -167 0
-208 -205 -110 167 0
208 205 -110 167 0
208 -205 110 167 0
208 -205 -110 -167 0
-207 205 110 0
-207 205 167 0
-207 110 167 0
207 -205 -110 0
207 -205 -167 0
207 -110 -167 0
-210 207 112 168 0
-210 207 -112 -168 0
-210 -207 112 -168 0
210 207 112 -168 0
-210 -207 -112 168 0
210 207 -112 168 0
210 -207 112 168 0
210 -207 -112 -168 0
-209 207 112 0
-209 207 168 0
-209 112 168 0
209 -207 -112 0
209 -207 -168 0
209 -112 -168 0
-212 209 114 169 0
-212 209 -114 -169 0
-212 -209 114 -169 0
212 209 114 -169 0
-212 -209 -114 169 0
212 209 -114 169 0
212 -209 114 169 0
212 -209 -114 -169 0
-211 209 114 0
-211 209 169 0
-211 114 169 0
211 -209 -114 0
211 -209 -169 0
211 -114 -169 0
-214 211 116 170 0
-214 211 -116 -170 0
-214 -211 116 -170 0
214 211 116 -170 0
-214 -211 -116 170 0
214 211 -116 170 0
214 -211 116 170 0
214 -211 -116 -170 0
-213 211 116 0
-213 211 170 0
-213 116 170 0
213 -211 -116 0
213 -211 -170 0
213 -116 -170 0
-216 213 118 171 0
-216 213 -118 -171 0
-216 -213 118 -171 0
216 213 118 -171 0
-216 -213 -118 171 0
216 213 -118 171 0
216 -213 118 171 0
216 -213 -118 -171 0
-215 213 118 0
-215 213 171 0
-215 118 171 0
215 -213 -118 0
215 -213 -171 0
215 -118 -171 0
-218 215 120 172 0
-218 215 -120 -172 0
-218 -215 120 -172 0
218 215 120 -172 0
-218 -215 -120 172 0
218 215 -120 172 0
218 -215 120 172 0
218 -215 -120 -172 0
-217 215 120 0
-217 215 172 0
-217 120 172 0
217 -215 -120 0
217 -215 -172 0
217 -120 -172 0
-220 217 122 173 0
-220 217 -122 -173 0
-220 -217 122 -173 0
220 217 122 -173 0
-220 -217 -122 173 0
220 217 -122 173 0
220 -217 122 173 0
220 -217 -122 -173 0
-219 217 122 0
-219 217 173 0
-219 122 173 0
219 -217 -122 0
219 -217 -173 0
219 -122 -173 0
-222 219 124 174 0
-222 219 -124 -174 0
-222 -219 124 -174 0
222 219 124 -174 0
-222 -219 -124 174 0
222 219 -124 174 0
222 -219 124 174 0
222 -219 -124 -174 0
-221 219 124 0
-221 219 174 0
-221 124 174 0
221 -219 -124 0
221 -219 -174 0
221 -124 -174 0
-224 221 126 175 0
-224 221 -126 -175 0
-224 -221 126 -175 0
224 221 126 -175 0
-224 -221 -126 175 0
224 221 -126 175 0
224 -221 126 175 0
224 -221 -126 -175 0
-223 221 126 0
-223 221 175 0
-223 126 175 0
223 -221 -126 0
223 -221 -175 0
223 -126 -175 0
-226 223 128 176 0
-226 223 -128 -176 0
-226 -223 128 -176 0
226 223 128 -176 0
-226 -223 -128 176 0
226 223 -128 176 0
226 -223 128 176 0
226 -223 -128 -176 0
-225 223 128 0
-225 223 176 0
-225 128 176 0
225 -223 -128 0
225 -223 -176 0
225 -128 -176 0
-228 225 130 177 0
-228 225 -130 -177 0
-228 -225 130 -177 0
228 225 130 -177 0
-228 -225 -130 177 0
228 225 -130 177 0
228 -225 130 177 0
228 -225 -130 -177 0
-227 225 130 0
-227 225 177 0
-227 130 177 0
227 -225 -130 0
227 -225 -177 0
227 -130 -177 0
-230 227 132 178 0
-230 227 -132 -178 0
-230 -227 132 -178 0
230 227 132 -178 0
-230 -227 -132 178 0
230 227 -132 178 0
230 -227 132 178 0
230 -227 -132 -178 0
-229 227 132 0
-229 227 178 0
-229 132 178 0
229 -227 -132 0
229 -227 -178 0
229 -132 -178 0
-232 229 134 179 0
-232 229 -134 -179 0
-232 -229 134 -179 0
232 229 134 -179 0
-232 -229 -134 179 0
232 229 -134 179 0
232 -229 134 179 0
232 -229 -134 -179 0
-231 229 134 0
-231 229 179 0
-231 134 179 0
231 -229 -134 0
231 -229 -179 0
231 -134 -179 0
-234 231 136 180 0
-234 231 -136 -180 0
-234 -231 136 -180 0
234 231 136 -180 0
-234 -231 -136 180 0
234 231 -136 180 0
234 -231 136 180 0
234 -231 -136 -180 0
-233 231 136 0
-233 231 180 0
-233 136 180 0
233 -231 -136 0
233 -231 -180 0
233 -136 -180 0
-236 233 138 181 0
-236 233 -138 -181 0
-236 -233 138 -181 0
236 233 138 -181 0
-236 -233 -138 181 0
236 233 -138 181 0
236 -233 138 181 0
236 -233 -138 -181 0
-235 233 138 0
-235 233 181 0
-235 138 181 0
235 -233 -138 0
235 -233 -181 0
235 -138 -181 0
-238 235 140 182 0
-238 235 -140 -182 0
-238 -235 140 -182 0
238 235 140 -182 0
-238 -235 -140 182 0
238 235 -140 182 0
238 -235 140 182 0
238 -235 -140 -182 0
-237 235 140 0
-237 235 182 0
-237 140 182 0
237 -235 -140 0
237 -235 -182 0
237 -140 -182 0
-240 237 142 183 0
-240 237 -142 -183 0
-240 -237 142 -183 0
240 237 142 -183 0
-240 -237 -142 183 0
240 237 -142 183 0
240 -237 142 183 0
240 -237 -142 -183 0
-239 237 142 0
-239 237 183 0
-239 142 183 0
239 -237 -142 0
239 -237 -183 0
239 -142 -183 0
-242 239 144 184 0
-242 239 -144 -184 0
-242 -239 144 -184 0
242 239 144 -184 0
-242 -239 -144 184 0
242 239 -144 184 0
242 -239 144 184 0
242 -239 -144 -184 0
-241 239 144 0
-241 239 184 0
-241 144 184 0
241 -239 -144 0
241 -239 -184 0
241 -144 -184 0
-244 241 146 185 0
-244 241 -146 -185 0
-244 -241 146 -185 0
244 241 146 -185 0
-244 -241 -146 185 0
244 241 -146 185 0
244 -241 146 185 0
244 -241 -146 -185 0
-243 241 146 0
-243 241 185 0
-243 146 185 0
243 -241 -146 0
243 -241 -185 0
243 -146 -185 0
-246 243 148 186 0
-246 243 -148 -186 0
-246 -243 148 -186 0
246 243 148 -186 0
-246 -243 -148 186 0
246 243 -148 186 0
246 -243 148 186 0
246 -243 -148 -186 0
-245 243 148 0
-245 243 186 0
-245 148 186 0
245 -243 -148 0
245 -243 -186 0
245 -148 -186 0
-248 245 150 187 0
-248 245 -150 -187 0
-248 -245 150 -187 0
248 245 150 -187 0
-248 -245 -150 187 0
248 245 -150 187 0
248 -245 150 187 0
248 -245 -150 -187 0
-247 245 150 0
-247 245 187 0
-247 150 187 0
247 -245 -150 0
247 -245 -187 0
247 -150 -187 0
-250 247 152 188 0
-250 247 -152 -188 0
-250 -247 152 -188 0
250 247 152 -188 0
-250 -247 -152 188 0
250 247 -152 188 0
250 -247 152 188 0
250 -247 -152 -188 0
-249 247 152 0
-249 247 188 0
-249 152 188 0
249 -247 -152 0
249 -247 -188 0
249 -152 -188 0
-252 249 154 189 0
-252 249 -154 -189 0
-252 -249 154 -189 0
252 249 154 -189 0
-252 -249 -154 189 0
252 249 -154 189 0
252 -249 154 189 0
252 -249 -154 -189 0
-251 249 154 0
-251 249 189 0
-251 154 189 0
251 -249 -154 0
251 -249 -189 0
251 -154 -189 0
-254 251 156 190 0
-254 251 -156 -190 0
-254 -251 156 -190 0
254 251 156 -190 0
-254 -251 -156 190 0
254 251 -156 190 0
254 -251 156 190 0
254 -251 -156 -190 0
-253 251 156 0
-253 251 190 0
-253 156 190 0
253 -251 -156 0
253 -251 -190 0
253 -156 -190 0
-256 253 158 191 0
-256 253 -158 -191 0
-256 -253 158 -191 0
256 253 158 -191 0
-256 -253 -158 191 0
256 253 -158 191 0
256 -253 158 191 0
256 -253 -158 -191 0
-255 253 158 0
-255 253 191 0
-255 158 191 0
255 -253 -158 0
255 -253 -191 0
255 -158 -191 0
-258 255 160 192 0
-258 255 -160 -192 0
-258 -255 160 -192 0
258 255 160 -192 0
-258 -255 -160 192 0
258 255 -160 192 0
258 -255 160 192 0
258 -255 -160 -192 0
-257 255 160 0
-257 255 192 0
-257 160 192 0
257 -255 -160 0
257 -255 -192 0
257 -160 -192 0
-260 257 162 193 0
-260 257 -162 -193 0
-260 -257 162 -193 0
260 257 162 -193 0
-260 -257 -162 193 0
260 257 -162 193 0
260 -257 162 193 0
260 -257 -162 -193 0
-259 257 162 0
-259 257 193 0
-259 162 193 0
259 -257 -162 0
259 -257 -193 0
259 -162 -193 0
-262 259 161 194 0
-262 259 -161 -194 0
-262 -259 161 -194 0
262 259 161 -194 0
-262 -259 -161 194 0
262 259 -161 194 0
262 -259 161 194 0
262 -259 -161 -194 0
-261 259 161 0
-261 259 194 0
-261 161 194 0
261 -259 -161 0
261 -259 -194 0
261 -161 -194 0
-263 1 0
-263 4 0
263 -1 -4 0
-264 2 0
-264 4 0
264 -2 -4 0
-265 3 0
-265 4 0
265 -3 -4 0
-266 4 0
266 -4 0
-267 5 0
-267 4 0
267 -5 -4 0
-268 6 0
-268 4 0
268 -6 -4 0
-269 7 0
-269 4 0
269 -7 -4 0
-270 8 0
-270 4 0
270 -8 -4 0
-271 9 0
-271 4 0
271 -9 -4 0
-272 10 0
-272 4 0
272 -10 -4 0
-273 11 0
-273 4 0
273 -11 -4 0
-274 12 0
-274 4 0
274 -12 -4 0
-275 13 0
-275 4 0
275 -13 -4 0
-276 14 0
-276 4 0
276 -14 -4 0
-277 15 0
-277 4 0
277 -15 -4 0
-278 16 0
-278 4 0
278 -16 -4 0
-279 17 0
-279 4 0
279 -17 -4 0
-280 18 0
-280 4 0
280 -18 -4 0
-281 19 0
-281 4 0
281 -19 -4 0
-282 20 0
-282 4 0
282 -20 -4 0
-283 21 0
-283 4 0
283 -21 -4 0
-284 22 0
-284 4 0
284 -22 -4 0
-285 23 0
-285 4 0
285 -23 -4 0
-286 24 0
-286 4 0
286 -24 -4 0
-287 25 0
-287 4 0
287 -25 -4 0
-288 26 0
-288 4 0
288 -26 -4 0
-289 27 0
-289 4 0
289 -27 -4 0
-290 28 0
-290 4 0
290 -28 -4 0
-291 29 0
-291 4 0
291 -29 -4 0
-292 30 0
-292 4 0
292 -30 -4 0
-293 31 0
-293 4 0
293 -31 -4 0
-294 32 0
-294 4 0
294 -32 -4 0
-196 296 0
196 -296 0
-295 0
198 295 -298 0
-198 -295 -298 0
-198 295 298 0
198 -295 298 0
-297 295 0
-297 198 0
297 -295 -198 0
200 297 -300 0
-200 -297 -300 0
-200 297 300 0
200 -297 300 0
-299 297 0
-299 200 0
299 -297 -200 0
-302 299 202 263 0
-302 299 -202 -263 0
-302 -299 202 -263 0
302 299 202 -263 0
-302 -299 -202 263 0
302 299 -202 263 0
302 -299 202 263 0
302 -299 -202 -263 0
-301 299 202 0
-301 299 263 0
-301 202 263 0
301 -299 -202 0
301 -299 -263 0
301 -202 -263 0
-304 301 204 264 0
-304 301 -204 -264 0
-304 -301 204 -264 0
304 301 204 -264 0
-304 -301 -204 264 0
304 301 -204 264 0
304 -301 204 264 0
304 -301 -204 -264 0
-303 301 204 0
-303 301 264 0
-303 204 264 0
303 -301 -204 0
303 -301 -264 0
303 -204 -264 0
-306 303 206 265 0
-306 303 -206 -265 0
-306 -303 206 -265 0
306 303 206 -265 0
-306 -303 -206 265 0
306 303 -206 265 0
306 -303 206 265 0
306 -303 -206 -265 0
-305 303 206 0
-305 303 265 0
-305 206 265 0
305 -303 -206 0
305 -303 -265 0
305 -206 -265 0
-308 305 208 266 0
-308 305 -208 -266 0
-308 -305 208 -266 0
308 305 208 -266 0
-308 -305 -208 266 0
308 305 -208 266 0
308 -305 208 266 0
308 -305 -208 -266 0
-307 305 208 0
-307 305 266 0
-307 208 266 0
307 -305 -208 0
307 -305 -266 0
307 -208 -266 0
-310 307 210 267 0
-310 307 -210 -267 0
-310 -307 210 -267 0
310 307 210 -267 0
-310 -307 -210 267 0
310 307 -210 267 0
310 -307 210 267 0
310 -307 -210 -267 0
-309 307 210 0
-309 307 267 0
-309 210 267 0
309 -307 -210 0
309 -307 -267 0
309 -210 -267 0
-312 309 212 268 0
-312 309 -212 -268 0
-312 -309 212 -268 0
312 309 212 -268 0
-312 -309 -212 268 0
312 309 -212 268 0
312 -309 212 268 0
312 -309 -212 -268 0
-311 309 212 0
-311 309 268 0
-311 212 268 0
311 -309 -212 0
311 -309 -268 0
311 -212 -268 0
-314 311 214 269 0
-314 311 -214 -269 0
-314 -311 214 -269 0
314 311 214 -269 0
-314 -311 -214 269 0
314 311 -214 269 0
314 -311 214 269 0
314 -311 -214 -269 0
-313 311 214 0
-313 311 269 0
-313 214 269 0
313 -311 -214 0
313 -311 -269 0
313 -214 -269 0
-316 313 216 270 0
-316 313 -216 -270 0
-316 -313 216 -270 0
316 313 216 -270 0
-316 -313 -216 270 0
316 313 -216 270 0
316 -313 216 270 0
316 -313 -216 -270 0
-315 313 216 0
-315 313 270 0
-315 216 270 0
315 -313 -216 0
315 -313 -270 0
315 -216 -270 0
-318 315 218 271 0
-318 315 -218 -271 0
-318 -315 218 -271 0
318 315 218 -271 0
-318 -315 -218 271 0
318 315 -218 271 0
318 -315 218 271 0
318 -315 -218 -271 0
-317 315 218 0
-317 315 271 0
-317 218 271 0
317 -315 -218 0
317 -315 -271 0
317 -218 -271 0
-320 317 220 272 0
-320 317 -220 -272 0
-320 -317 220 -272 0
320 317 220 -272 0
-320 -317 -220 272 0
320 317 -220 272 0
320 -317 220 272 0
320 -317 -220 -272 0
-319 317 220 0
-319 317 272 0
-319 220 272 0
319 -317 -220 0
319 -317 -272 0
319 -220 -272 0
-322 319 222 273 0
-322 319 -222 -273 0
-322 -319 222 -273 0
322 319 222 -273 0
-322 -319 -222 273 0
322 319 -222 273 0
322 -319 222 273 0
322 -319 -222 -273 0
-321 319 222 0
-321 319 273 0
-321 222 273 0
321 -319 -222 0
321 -319 -273 0
321 -222 -273 0
-324 321 224 274 0
-324 321 -224 -274 0
-324 -321 224 -274 0
324 321 224 -274 0
-324 -321 -224 274 0
324 321 -224 274 0
324 -321 224 274 0
324 -321 -224 -274 0
-323 321 224 0
-323 321 274 0
-323 224 274 0
323 -321 -224 0
323 -321 -274 0
323 -224 -274 0
-326 323 226 275 0
-326 323 -226 -275 0
-326 -323 226 -275 0
326 323 226 -275 0
-326 -323 -226 275 0
326 323 -226 275 0
326 -323 226 275 0
326 -323 -226 -275 0
-325 323 226 0
-325 323 275 0
-325 226 275 0
325 -323 -226 0
325 -323 -275 0
325 -226 -275 0
-328 325 228 276 0
-328 325 -228 -276 0
-328 -325 228 -276 0
328 325 228 -276 0
-328 -325 -228 276 0
328 325 -228 276 0
328 -325 228 276 0
328 -325 -228 -276 0
-327 325 228 0
-327 325 276 0
-327 228 276 0
327 -325 -228 0
327 -325 -276 0
327 -228 -276 0
-330 327 230 277 0
-330 327 -230 -277 0
-330 -327 230 -277 0
330 327 230 -277 0
-330 -327 -230 277 0
330 327 -230 277 0
330 -327 230 277 0
330 -327 -230 -277 0
-329 327 230 0
-329 327 277 0
-329 230 277 0
329 -327 -230 0
329 -327 -277 0
329 -230 -277 0
-332 329 232 278 0
-332 329 -232 -278 0
-332 -329 232 -278 0
332 329 232 -278 0
-332 -329 -232 278 0
332 329 -232 278 0
332 -329 232 278 0
332 -329 -232 -278 0
-331 329 232 0
-331 329 278 0
-331 232 278 0
331 -329 -232 0
331 -329 -278 0
331 -232 -278 0
-334 331 234 279 0
-334 331 -234 -279 0
-334 -331 234 -279 0
334 331 234 -279 0
-334 -331 -234 279 0
334 331 -234 279 0
334 -331 234 279 0
334 -331 -234 -279 0
-333 331 234 0
-333 331 279 0
-333 234 279 0
333 -331 -234 0
333 -331 -279 0
333 -234 -279 0
-336 333 236 280 0
-336 333 -236 -280 0
-336 -333 236 -280 0
336 333 236 -280 0
-336 -333 -236 280 0
336 333 -236 280 0
336 -333 236 280 0
336 -333 -236 -280 0
-335 333 236 0
-335 333 280 0
-335 236 280 0
335 -333 -236 0
335 -333 -280 0
335 -236 -280 0
-338 335 238 281 0
-338 335 -238 -281 0
-338 -335 238 -281 0
338 335 238 -281 0
-338 -335 -238 281 0
338 335 -238 281 0
338 -335 238 281 0
338 -335 -238 -281 0
-337 335 238 0
-337 335 281 0
-337 238 281 0
337 -335 -238 0
337 -335 -281 0
337 -238 -281 0
-340 337 240 282 0
-340 337 -240 -282 0
-340 -337 240 -282 0
340 337 240 -282 0
-340 -337 -240 282 0
340 337 -240 282 0
340 -337 240 282 0
340 -337 -240 -282 0
-339 337 240 0
-339 337 282 0
-339 240 282 0
339 -337 -240 0
339 -337 -282 0
339 -240 -282 0
-342 339 242 283 0
-342 339 -242 -283 0
-342 -339 242 -283 0
342 339 242 -283 0
-342 -339 -242 283 0
342 339 -242 283 0
342 -339 242 283 0
342 -339 -242 -283 0
-341 339 242 0
-341 339 283 0
-341 242 283 0
341 -339 -242 0
341 -339 -283 0
341 -242 -283 0
-344 341 244 284 0
-344 341 -244 -284 0
-344 -341 244 -284 0
344 341 244 -284 0
-344 -341 -244 284 0
344 341 -244 284 0
344 -341 244 284 0
344 -341 -244 -284 0
-343 341 244 0
-343 341 284 0
-343 244 284 0
343 -341 -244 0
343 -341 -284 0
343 -244 -284 0
-346 343 246 285 0
-346 343 -246 -285 0
-346 -343 246 -285 0
346 343 246 -285 0
-346 -343 -246 285 0
346 343 -246 285 0
346 -343 246 285 0
346 -343 -246 -285 0
-345 343 246 0
-345 343 285 0
-345 246 285 0
345 -343 -246 0
345 -343 -285 0
345 -246 -285 0
-348 345 248 286 0
-348 345 -248 -286 0
-348 -345 248 -286 0
348 345 248 -286 0
-348 -345 -248 286 0
348 345 -248 286 0
348 -345 248 286 0
348 -345 -248 -286 0
-347 345 248 0
-347 345 286 0
-347 248 286 0
347 -345 -248 0
347 -345 -286 0
347 -248 -286 0
-350 347 250 287 0
-350 347 -250 -287 0
-350 -347 250 -287 0
350 347 250 -287 0
-350 -347 -250 287 0
350 347 -250 287 0
350 -347 250 287 0
350 -347 -250 -287 0
-349 347 250 0
-349 347 287 0
-349 250 287 0
349 -347 -250 0
349 -347 -287 0
349 -250 -287 0
-352 349 252 288 0
-352 349 -252 -288 0
-352 -349 252 -288 0
352 349 252 -288 0
-352 -349 -252 288 0
352 349 -252 288 0
352 -349 252 288 0
352 -349 -252 -288 0
-351 349 252 0
-351 349 288 0
-351 252 288 0
351 -349 -252 0
351 -349 -288 0
351 -252 -288 0
-354 351 254 289 0
-354 351 -254 -289 0
-354 -351 254 -289 0
354 351 254 -289 0
-354 -351 -254 289 0
354 351 -254 289 0
354 -351 254 289 0
354 -351 -254 -289 0
-353 351 254 0
-353 351 289 0
-353 254 289 0
353 -351 -254 0
353 -351 -289 0
353 -254 -289 0
-356 353 256 290 0
-356 353 -256 -290 0
-356 -353 256 -290 0
356 353 256 -290 0
-356 -353 -256 290 0
356 353 -256 290 0
356 -353 256 290 0
356 -353 -256 -290 0
-355 353 256 0
-355 353 290 0
-355 256 290 0
355 -353 -256 0
355 -353 -290 0
355 -256 -290 0
-358 355 258 291 0
-358 355 -258 -291 0
-358 -355 258 -291 0
358 355 258 -291 0
-358 -355 -258 291 0
358 355 -258 291 0
358 -355 258 291 0
358 -355 -258 -291 0
-357 355 258 0
-357 355 291 0
-357 258 291 0
357 -355 -258 0
357 -355 -291 0
357 -258 -291 0
-360 357 260 292 0
-360 357 -260 -292 0
-360 -357 260 -292 0
360 357 260 -292 0
-360 -357 -260 292 0
360 357 -260 292 0
360 -357 260 292 0
360 -357 -260 -292 0
-359 357 260 0
-359 357 292 0
-359 260 292 0
359 -357 -260 0
359 -357 -292 0
359 -260 -292 0
-362 359 262 293 0
-362 359 -262 -293 0
-362 -359 262 -293 0
362 359 262 -293 0
-362 -359 -262 293 0
362 359 -262 293 0
362 -359 262 293 0
362 -359 -262 -293 0
-361 359 262 0
-361 359 293 0
-361 262 293 0
361 -359 -262 0
361 -359 -293 0
361 -262 -293 0
-364 361 261 294 0
-364 361 -261 -294 0
-364 -361 261 -294 0
364 361 261 -294 0
-364 -361 -261 294 0
364 361 -261 294 0
364 -361 261 294 0
364 -361 -261 -294 0
-363 361 261 0
-363 361 294 0
-363 261 294 0
363 -361 -261 0
363 -361 -294 0
363 -261 -294 0
-365 1 0
-365 5 0
365 -1 -5 0
-366 2 0
-366 5 0
366 -2 -5 0
-367 3 0
-367 5 0
367 -3 -5 0
-368 4 0
-368 5 0
368 -4 -5 0
-369 5 0
369 -5 0
-370 6 0
-370 5 0
370 -6 -5 0
-371 7 0
-371 5 0
371 -7 -5 0
-372 8 0
-372 5 0
372 -8 -5 0
-373 9 0
-373 5 0
373 -9 -5 0
-374 10 0
-374 5 0
374 -10 -5 0
-375 11 0
-375 5 0
375 -11 -5 0
-376 12 0
-376 5 0
376 -12 -5 0
-377 13 0
-377 5 0
377 -13 -5 0
-378 14 0
-378 5 0
378 -14 -5 0
-379 15 0
-379 5 0
379 -15 -5 0
-380 16 0
-380 5 0
380 -16 -5 0
-381 17 0
-381 5 0
381 -17 -5 0
-382 18 0
-382 5 0
382 -18 -5 0
-383 19 0
-383 5 0
383 -19 -5 0
-384 20 0
-384 5 0
384 -20 -5 0
-385 21 0
-385 5 0
385 -21 -5 0
-386 22 0
-386 5 0
386 -22 -5 0
-387 23 0
-387 5 0
387 -23 -5 0
-388 24 0
-388 5 0
388 -24 -5 0
-389 25 0
-389 5 0
389 -25 -5 0
-390 26 0
-390 5 0
390 -26 -5 0
-391 27 0
-391 5 0
391 -27 -5 0
-392 28 0
-392 5 0
392 -28 -5 0
-393 29 0
-393 5 0
393 -29 -5 0
-394 30 0
-394 5 0
394 -30 -5 0
-395 31 0
-395 5 0
395 -31 -5 0
-396 32 0
-396 5 0
396 -32 -5 0
-296 398 0
296 -398 0
-397 0
298 397 -400 0
-298 -397 -400 0
-298 397 400 0
298 -397 400 0
-399 397 0
-399 298 0
399 -397 -298 0
300 399 -402 0
-300 -399 -402 0
-300 399 402 0
300 -399 402 0
-401 399 0
-401 300 0
401 -399 -300 0
302 401 -404 0
-302 -401 -404 0
-302 401 404 0
302 -401 404 0
-403 401 0
-403 302 0
403 -401 -302 0
-406 403 304 365 0
-406 403 -304 -365 0
-406 -403 304 -365 0
406 403 304 -365 0
-406 -403 -304 365 0
406 403 -304 365 0
406 -403 304 365 0
406 -403 -304 -365 0
-405 403 304 0
-405 403 365 0
-405 304 365 0
405 -403 -304 0
405 -403 -365 0
405 -304 -365 0
-408 405 306 366 0
-408 405 -306 -366 0
-408 -405 306 -366 0
408 405 306 -366 0
-408 -405 -306 366 0
408 405 -306 366 0
408 -405 306 366 0
408 -405 -306 -366 0
-407 405 306 0
-407 405 366 0
-407 306 366 0
407 -405 -306 0
407 -405 -366 0
407 -306 -366 0
-410 407 308 367 0
-410 407 -308 -367 0
-410 -407 308 -367 0
410 407 308 -367 0
-410 -407 -308 367 0
410 407 -308 367 0
410 -407 308 367 0
410 -407 -308 -367 0
-409 407 308 0
-409 407 367 0
-409 308 367 0
409 -407 -308 0
409 -407 -367 0
409 -308 -367 0
-412 409 310 368 0
-412 409 -310 -368 0
-412 -409 310 -368 0
412 409 310 -368 0
-412 -409 -310 368 0
412 409 -310 368 0
412 -409 310 368 0
412 -409 -310 -368 0
-411 409 310 0
-411 409 368 0
-411 310 368 0
411 -409 -310 0
411 -409 -368 0
411 -310 -368 0
-414 411 312 369 0
-414 411 -312 -369 0
-414 -411 312 -369 0
414 411 312 -369 0
-414 -411 -312 369 0
414 411 -312 369 0
414 -411 312 369 0
414 -411 -312 -369 0
-413 411 312 0
-413 411 369 0
-413 312 369 0
413 -411 -312 0
413 -411 -369 0
413 -312 -369 0
-416 413 314 370 0
-416 413 -314 -370 0
-416 -413 314 -370 0
416 413 314 -370 0
-416 -413 -314 370 0
416 413 -314 370 0
416 -413 314 370 0
416 -413 -314 -370 0
-415 413 314 0
-415 413 370 0
-415 314 370 0
415 -413 -314 0
415 -413 -370 0
415 -314 -370 0
-418 415 316 371 0
-418 415 -316 -371 0
-418 -415 316 -371 0
418 415 316 -371 0
-418 -415 -316 371 0
418 415 -316 371 0
418 -415 316 371 0
418 -415 -316 -371 0
-417 415 316 0
-417 415 371 0
-417 316 371 0
417 -415 -316 0
417 -415 -371 0
417 -316 -371 0
-420 417 318 372 0
-420 417 -318 -372 0
-420 -417 318 -372 0
420 417 318 -372 0
-420 -417 -318 372 0
420 417 -318 372 0
420 -417 318 372 0
420 -417 -318 -372 0
-419 417 318 0
-419 417 372 0
-419 318 372 0
419 -417 -318 0
419 -417 -372 0
419 -318 -372 0
-422 419 320 373 0
-422 419 -320 -373 0
-422 -419 320 -373 0
422 419 320 -373 0
-422 -419 -320 373 0
422 419 -320 373 0
422 -419 320 373 0
422 -419 -320 -373 0
-421 419 320 0
-421 419 373 0
-421 320 373 0
421 -419 -320 0
421 -419 -373 0
421 -320 -373 0
-424 421 322 374 0
-424 421 -322 -374 0
-424 -421 322 -374 0
424 421 322 -374 0
-424 -421 -322 374 0
424 421 -322 374 0
424 -421 322 374 0
424 -421 -322 -374 0
-423 421 322 0
-423 421 374 0
-423 322 374 0
423 -421 -322 0
423 -421 -374 0
423 -322 -374 0
-426 423 324 375 0
-426 423 -324 -375 0
-426 -423 324 -375 0
426 423 324 -375 0
-426 -423 -324 375 0
426 423 -324 375 0
426 -423 324 375 0
426 -423 -324 -375 0
-425 423 324 0
-425 423 375 0
-425 324 375 0
425 -423 -324 0
425 -423 -375 0
425 -324 -375 0
-428 425 326 376 0
-428 425 -326 -376 0
-428 -425 326 -376 0
428 425 326 -376 0
-428 -425 -326 376 0
428 425 -326 376 0
428 -425 326 376 0
428 -425 -326 -376 0
-427 425 326 0
-427 425 376 0
-427 326 376 0
427 -425 -326 0
427 -425 -376 0
427 -326 -376 0
-430 427 328 377 0
-430 427 -328 -377 0
-430 -427 328 -377 0
430 427 328 -377 0
-430 -427 -328 377 0
430 427 -328 377 0
430 -427 328 377 0
430 -427 -328 -377 0
-429 427 328 0
-429 427 377 0
-429 328 377 0
429 -427 -328 0
429 -427 -377 0
429 -328 -377 0
-432 429 330 378 0
-432 429 -330 -378 0
-432 -429 330 -378 0
432 429 330 -378 0
-432 -429 -330 378 0
432 429 -330 378 0
432 -429 330 378 0
432 -429 -330 -378 0
-431 429 330 0
-431 429 378 0
-431 330 378 0
431 -429 -330 0
431 -429 -378 0
431 -330 -378 0
-434 431 332 379 0
-434 431 -332 -379 0
-434 -431 332 -379 0
434 431 332 -379 0
-434 -431 -332 379 0
434 431 -332 379 0
434 -431 332 379 0
434 -431 -332 -379 0
-433 431 332 0
-433 431 379 0
-433 332 379 0
433 -431 -332 0
433 -431 -379 0
433 -332 -379 0
-436 433 334 380 0
-436 433 -334 -380 0
-436 -433 334 -380 0
436 433 334 -380 0
-436 -433 -334 380 0
436 433 -334 380 0
436 -433 334 380 0
436 -433 -334 -380 0
-435 433 334 0
-435 433 380 0
-435 334 380 0
435 -433 -334 0
435 -433 -380 0
435 -334 -380 0
-438 435 336 381 0
-438 435 -336 -381 0
-438 -435 336 -381 0
438 435 336 -381 0
-438 -435 -336 381 0
438 435 -336 381 0
438 -435 336 381 0
438 -435 -336 -381 0
-437 435 336 0
-437 435 381 0
-437 336 381 0
437 -435 -336 0
437 -435 -381 0
437 -336 -381 0
-440 437 338 382 0
-440 437 -338 -382 0
-440 -437 338 -382 0
440 437 338 -382 0
-440 -437 -338 382 0
440 437 -338 382 0
440 -437 338 382 0
440 -437 -338 -382 0
-439 437 338 0
-439 437 382 0
-439 338 382 0
439 -437 -338 0
439 -437 -382 0
439 -338 -382 0
-442 439 340 383 0
-442 439 -340 -383 0
-442 -439 340 -383 0
442 439 340 -383 0
-442 -439 -340 383 0
442 439 -340 383 0
442 -439 340 383 0
442 -439 -340 -383 0
-441 439 340 0
-441 439 383 0
-441 340 383 0
441 -439 -340 0
441 -439 -383 0
441 -340 -383 0
-444 441 342 384 0
-444 441 -342 -384 0
-444 -441 342 -384 0
444 441 342 -384 0
-444 -441 -342 384 0
444 441 -342 384 0
444 -441 342 384 0
444 -441 -342 -384 0
-443 441 342 0
-443 441 384 0
-443 342 384 0
443 -441 -342 0
443 -441 -384 0
443 -342 -384 0
-446 443 344 385 0
-446 443 -344 -385 0
-446 -443 344 -385 0
446 443 344 -385 0
-446 -443 -344 385 0
446 443 -344 385 0
446 -443 344 385 0
446 -443 -344 -385 0
-445 443 344 0
-445 443 385 0
-445 344 385 0
445 -443 -344 0
445 -443 -385 0
445 -344 -385 0
-448 445 346 386 0
-448 445 -346 -386 0
-448 -445 346 -386 0
448 445 346 -386 0
-448 -445 -346 386 0
448 445 -346 386 0
448 -445 346 386 0
448 -445 -346 -386 0
-447 445 346 0
-447 445 386 0
-447 346 386 0
447 -445 -346 0
447 -445 -386 0
447 -346 -386 0
-450 447 348 387 0
-450 447 -348 -387 0
-450 -447 348 -387 0
450 447 348 -387 0
-450 -447 -348 387 0
450 447 -348 387 0
450 -447 348 387 0
450 -447 -348 -387 0
-449 447 348 0
-449 447 387 0
-449 348 387 0
449 -447 -348 0
449 -447 -387 0
449 -348 -387 0
-452 449 350 388 0
-452 449 -350 -388 0
-452 -449 350 -388 0
452 449 350 -388 0
-452 -449 -350 388 0
452 449 -350 388 0
452 -449 350 388 0
452 -449 -350 -388 0
-451 449 350 0
-451 449 388 0
-451 350 388 0
451 -449 -350 0
451 -449 -388 0
451 -350 -388 0
-454 451 352 389 0
-454 451 -352 -389 0
-454 -451 352 -389 0
454 451 352 -389 0
-454 -451 -352 389 0
454 451 -352 389 0
454 -451 352 389 0
454 -451 -352 -389 0
-453 451 352 0
-453 451 389 0
-453 352 389 0
453 -451 -352 0
453 -451 -389 0
453 -352 -389 0
-456 453 354 390 0
-456 453 -354 -390 0
-456 -453 354 -390 0
456 453 354 -390 0
-456 -453 -354 390 0
456 453 -354 390 0
456 -453 354 390 0
456 -453 -354 -390 0
-455 453 354 0
-455 453 390 0
-455 354 390 0
455 -453 -354 0
455 -453 -390 0
455 -354 -390 0
-458 455 356 391 0
-458 455 -356 -391 0
-458 -455 356 -391 0
458 455 356 -391 0
-458 -455 -356 391 0
458 455 -356 391 0
458 -455 356 391 0
458 -455 -356 -391 0
-457 455 356 0
-457 455 391 0
-457 356 391 0
457 -455 -356 0
457 -455 -391 0
457 -356 -391 0
-460 457 358 392 0
-460 457 -358 -392 0
-460 -457 358 -392 0
460 457 358 -392 0
-460 -457 -358 392 0
460 457 -358 392 0
460 -457 358 392 0
460 -457 -358 -392 0
-459 457 358 0
-459 457 392 0
-459 358 392 0
459 -457 -358 0
459 -457 -392 0
459 -358 -392 0
-462 459 360 393 0
-462 459 -360 -393 0
-462 -459 360 -393 0
462 459 360 -393 0
-462 -459 -360 393 0
462 459 -360 393 0
462 -459 360 393 0
462 -459 -360 -393 0
-461 459 360 0
-461 459 393 0
-461 360 393 0
461 -459 -360 0
461 -459 -393 0
461 -360 -393 0
-464 461 362 394 0
-464 461 -362 -394 0
-464 -461 362 -394 0
464 461 362 -394 0
-464 -461 -362 394 0
464 461 -362 394 0
464 -461 362 394 0
464 -461 -362 -394 0
-463 461 362 0
-463 461 394 0
-463 362 394 0
463 -461 -362 0
463 -461 -394 0
463 -362 -394 0
-466 463 364 395 0
-466 463 -364 -395 0
-466 -463 364 -395 0
466 463 364 -395 0
-466 -463 -364 395 0
466 463 -364 395 0
466 -463 364 395 0
466 -463 -364 -395 0
-465 463 364 0
-465 463 395 0
-465 364 395 0
465 -463 -364 0
465 -463 -395 0
465 -364 -395 0
-468 465 363 396 0
-468 465 -363 -396 0
-468 -465 363 -396 0
468 465 363 -396 0
-468 -465 -363 396 0
468 465 -363 396 0
468 -465 363 396 0
468 -465 -363 -396 0
-467 465 363 0
-467 465 396 0
-467 363 396 0
467 -465 -363 0
467 -465 -396 0
467 -363 -396 0
-469 1 0
-469 6 0
469 -1 -6 0
-470 2 0
-470 6 0
470 -2 -6 0
-471 3 0
-471 6 0
471 -3 -6 0
-472 4 0
-472 6 0
472 -4 -6 0
-473 5 0
-473 6 0
473 -5 -6 0
-474 6 0
474 -6 0
-475 7 0
-475 6 0
475 -7 -6 0
-476 8 0
-476 6 0
476 -8 -6 0
-477 9 0
-477 6 0
477 -9 -6 0
-478 10 0
-478 6 0
478 -10 -6 0
-479 11 0
-479 6 0
479 -11 -6 0
-480 12 0
-480 6 0
480 -12 -6 0
-481 13 0
-481 6 0
481 -13 -6 0
-482 14 0
-482 6 0
482 -14 -6 0
-483 15 0
-483 6 0
483 -15 -6 0
-484 16 0
-484 6 0
484 -16 -6 0
-485 17 0
-485 6 0
485 -17 -6 0
-486 18 0
-486 6 0
486 -18 -6 0
-487 19 0
-487 6 0
487 -19 -6 0
-488 20 0
-488 6 0
488 -20 -6 0
-489 21 0
-489 6 0
489 -21 -6 0
-490 22 0
-490 6 0
490 -22 -6 0
-491 23 0
-491 6 0
491 -23 -6 0
-492 24 0
-492 6 0
492 -24 -6 0
-493 25 0
-493 6 0
493 -25 -6 0
-494 26 0
-494 6 0
494 -26 -6 0
-495 27 0
-495 6 0
495 -27 -6 0
-496 28 0
-496 6 0
496 -28 -6 0
-497 29 0
-497 6 0
497 -29 -6 0
-498 30 0
-498 6 0
498 -30 -6 0
-499 31 0
-499 6 0
499 -31 -6 0
-500 32 0
-500 6 0
500 -32 -6 0
-398 502 0
398 -502 0
-501 0
400 501 -504 0
-400 -501 -504 0
-400 501 504 0
400 -501 504 0
-503 501 0
-503 400 0
503 -501 -400 0
402 503 -506 0
-402 -503 -506 0
-402 503 506 0
402 -503 506 0
-505 503 0
-505 402 0
505 -503 -402 0
404 505 -508 0
-404 -505 -508 0
-404 505 508 0
404 -505 508 0
-507 505 0
-507 404 0
507 -505 -404 0
406 507 -510 0
-406 -507 -510 0
-406 507 510 0
406 -507 510 0
-509 507 0
-509 406 0
509 -507 -406 0
-512 509 408 469 0
-512 509 -408 -469 0
-512 -509 408 -469 0
512 509 408 -469 0
-512 -509 -408 469 0
512 509 -408 469 0
512 -509 408 469 0
512 -509 -408 -469 0
-511 509 408 0
-511 509 469 0
-511 408 469 0
511 -509 -408 0
511 -509 -469 0
511 -408 -469 0
-514 511 410 470 0
-514 511 -410 -470 0
-514 -511 410 -470 0
514 511 410 -470 0
-514 -511 -410 470 0
514 511 -410 470 0
514 -511 410 470 0
514 -511 -410 -470 0
-513 511 410 0
-513 511 470 0
-513 410 470 0
513 -511 -410 0
513 -511 -470 0
513 -410 -470 0
-516 513 412 471 0
-516 513 -412 -471 0
-516 -513 412 -471 0
516 513 412 -471 0
-516 -513 -412 471 0
516 513 -412 471 0
516 -513 412 471 0
516 -513 -412 -471 0
-515 513 412 0
-515 513 471 0
-515 412 471 0
515 -513 -412 0
515 -513 -471 0
515 -412 -471 0
-518 515 414 472 0
-518 515 -414 -472 0
-518 -515 414 -472 0
518 515 414 -472 0
-518 -515 -414 472 0
518 515 -414 472 0
518 -515 414 472 0
518 -515 -414 -472 0
-517 515 414 0
-517 515 472 0
-517 414 472 0
517 -515 -414 0
517 -515 -472 0
517 -414 -472 0
-520 517 416 473 0
-520 517 -416 -473 0
-520 -517 416 -473 0
520 517 416 -473 0
-520 -517 -416 473 0
520 517 -416 473 0
520 -517 416 473 0
520 -517 -416 -473 0
-519 517 416 0
-519 517 473 0
-519 416 473 0
519 -517 -416 0
519 -517 -473 0
519 -416 -473 0
-522 519 418 474 0
-522 519 -418 -474 0
-522 -519 418 -474 0
522 519 418 -474 0
-522 -519 -418 474 0
522 519 -418 474 0
522 -519 418 474 0
522 -519 -418 -474 0
-521 519 418 0
-521 519 474 0
-521 418 474 0
521 -519 -418 0
521 -519 -474 0
521 -418 -474 0
-524 521 420 475 0
-524 521 -420 -475 0
-524 -521 420 -475 0
524 521 420 -475 0
-524 -521 -420 475 0
524 521 -420 475 0
524 -521 420 475 0
524 -521 -420 -475 0
-523 521 420 0
-523 521 475 0
-523 420 475 0
523 -521 -420 0
523 -521 -475 0
523 -420 -475 0
-526 523 422 476 0
-526 523 -422 -476 0
-526 -523 422 -476 0
526 523 422 -476 0
-526 -523 -422 476 0
526 523 -422 476 0
526 -523 422 476 0
526 -523 -422 -476 0
-525 523 422 0
-525 523 476 0
-525 422 476 0
525 -523 -422 0
525 -523 -476 0
525 -422 -476 0
-528 525 424 477 0
-528 525 -424 -477 0
-528 -525 424 -477 0
528 525 424 -477 0
-528 -525 -424 477 0
528 525 -424 477 0
528 -525 424 477 0
528 -525 -424 -477 0
-527 525 424 0
-527 525 477 0
-527 424 477 0
527 -525 -424 0
527 -525 -477 0
527 -424 -477 0
-530 527 426 478 0
-530 527 -426 -478 0
-530 -527 426 -478 0
530 527 426 -478 0
-530 -527 -426 478 0
530 527 -426 478 0
530 -527 426 478 0
530 -527 -426 -478 0
-529 527 426 0
-529 527 478 0
-529 426 478 0
529 -527 -426 0
529 -527 -478 0
529 -426 -478 0
-532 529 428 479 0
-532 529 -428 -479 0
-532 -529 428 -479 0
532 529 428 -479 0
-532 -529 -428 479 0
532 529 -428 479 0
532 -529 428 479 0
532 -529 -428 -479 0
-531 529 428 0
-531 529 479 0
-531 428 479 0
531 -529 -428 0
531 -529 -479 0
531 -428 -479 0
-534 531 430 480 0
-534 531 -430 -480 0
-534 -531 430 -480 0
534 531 430 -480 0
-534 -531 -430 480 0
534 531 -430 480 0
534 -531 430 480 0
534 -531 -430 -480 0
-533 531 430 0
-533 531 480 0
-533 430 480 0
533 -531 -430 0
533 -531 -480 0
533 -430 -480 0
-536 533 432 481 0
-536 533 -432 -481 0
-536 -533 432 -481 0
536 533 432 -481 0
-536 -533 -432 481 0
536 533 -432 481 0
536 -533 432 481 0
536 -533 -432 -481 0
-535 533 432 0
-535 533 481 0
-535 432 481 0
535 -533 -432 0
535 -533 -481 0
535 -432 -481 0
-538 535 434 482 0
-538 535 -434 -482 0
-538 -535 434 -482 0
538 535 434 -482 0
-538 -535 -434 482 0
538 535 -434 482 0
538 -535 434 482 0
538 -535 -434 -482 0
-537 535 434 0
-537 535 482 0
-537 434 482 0
537 -535 -434 0
537 -535 -482 0
537 -434 -482 0
-540 537 436 483 0
-540 537 -436 -483 0
-540 -537 436 -483 0
540 537 436 -483 0
-540 -537 -436 483 0
540 537 -436 483 0
540 -537 436 483 0
540 -537 -436 -483 0
-539 537 436 0
-539 537 483 0
-539 436 483 0
539 -537 -436 0
539 -537 -483 0
539 -436 -483 0
-542 539 438 484 0
-542 539 -438 -484 0
-542 -539 438 -484 0
542 539 438 -484 0
-542 -539 -438 484 0
542 539 -438 484 0
542 -539 438 484 0
542 -539 -438 -484 0
-541 539 438 0
-541 539 484 0
-541 438 484 0
541 -539 -438 0
541 -539 -484 0
541 -438 -484 0
-544 541 440 485 0
-544 541 -440 -485 0
-544 -541 440 -485 0
544 541 440 -485 0
-544 -541 -440 485 0
544 541 -440 485 0
544 -541 440 485 0
544 -541 -440 -485 0
-543 541 440 0
-543 541 485 0
-543 440 485 0
543 -541 -440 0
543 -541 -485 0
543 -440 -485 0
-546 543 442 486 0
-546 543 -442 -486 0
-546 -543 442 -486 0
546 543 442 -486 0
-546 -543 -442 486 0
546 543 -442 486 0
546 -543 442 486 0
546 -543 -442 -486 0
-545 543 442 0
-545 543 486 0
-545 442 486 0
545 -543 -442 0
545 -543 -486 0
545 -442 -486 0
-548 545 444 487 0
-548 545 -444 -487 0
-548 -545 444 -487 0
548 545 444 -487 0
-548 -545 -444 487 0
548 545 -444 487 0
548 -545 444 487 0
548 -545 -444 -487 0
-547 545 444 0
-547 545 487 0
-547 444 487 0
547 -545 -444 0
547 -545 -487 0
547 -444 -487 0
-550 547 446 488 0
-550 547 -446 -488 0
-550 -547 446 -488 0
550 547 446 -488 0
-550 -547 -446 488 0
550 547 -446 488 0
550 -547 446 488 0
550 -547 -446 -488 0
-549 547 446 0
-549 547 488 0
-549 446 488 0
549 -547 -446 0
549 -547 -488 0
549 -446 -488 0
-552 549 448 489 0
-552 549 -448 -489 0
-552 -549 448 -489 0
552 549 448 -489 0
-552 -549 -448 489 0
552 549 -448 489 0
552 -549 448 489 0
552 -549 -448 -489 0
-551 549 448 0
-551 549 489 0
-551 448 489 0
551 -549 -448 0
551 -549 -489 0
551 -448 -489 0
-554 551 450 490 0
-554 551 -450 -490 0
-554 -551 450 -490 0
554 551 450 -490 0
-554 -551 -450 490 0
554 551 -450 490 0
554 -551 450 490 0
554 -551 -450 -490 0
-553 551 450 0
-553 551 490 0
-553 450 490 0
553 -551 -450 0
553 -551 -490 0
553 -450 -490 0
-556 553 452 491 0
-556 553 -452 -491 0
-556 -553 452 -491 0
556 553 452 -491 0
-556 -553 -452 491 0
556 553 -452 491 0
556 -553 452 491 0
556 -553 -452 -491 0
-555 553 452 0
-555 553 491 0
-555 452 491 0
555 -553 -452 0
555 -553 -491 0
555 -452 -491 0
-558 555 454 492 0
-558 555 -454 -492 0
-558 -555 454 -492 0
558 555 454 -492 0
-558 -555 -454 492 0
558 555 -454 492 0
558 -555 454 492 0
558 -555 -454 -492 0
-557 555 454 0
-557 555 492 0
-557 454 492 0
557 -555 -454 0
557 -555 -492 0
557 -454 -492 0
-560 557 456 493 0
-560 557 -456 -493 0
-560 -557 456 -493 0
560 557 456 -493 0
-560 -557 -456 493 0
560 557 -456 493 0
560 -557 456 493 0
560 -557 -456 -493 0
-559 557 456 0
-559 557 493 0
-559 456 493 0
559 -557 -456 0
559 -557 -493 0
559 -456 -493 0
-562 559 458 494 0
-562 559 -458 -494 0
-562 -559 458 -494 0
562 559 458 -494 0
-562 -559 -458 494 0
562 559 -458 494 0
562 -559 458 494 0
562 -559 -458 -494 0
-561 559 458 0
-561 559 494 0
-561 458 494 0
561 -559 -458 0
561 -559 -494 0
561 -458 -494 0
-564 561 460 495 0
-564 561 -460 -495 0
-564 -561 460 -495 0
564 561 460 -495 0
-564 -561 -460 495 0
564 561 -460 495 0
564 -561 460 495 0
564 -561 -460 -495 0
-563 561 460 0
-563 561 495 0
-563 460 495 0
563 -561 -460 0
563 -561 -495 0
563 -460 -495 0
-566 563 462 496 0
-566 563 -462 -496 0
-566 -563 462 -496 0
566 563 462 -496 0
-566 -563 -462 496 0
566 563 -462 496 0
566 -563 462 496 0
566 -563 -462 -496 0
-565 563 462 0
-565 563 496 0
-565 462 496 0
565 -563 -462 0
565 -563 -496 0
565 -462 -496 0
-568 565 464 497 0
-568 565 -464 -497 0
-568 -565 464 -497 0
568 565 464 -497 0
-568 -565 -464 497 0
568 565 -464 497 0
568 -565 464 497 0
568 -565 -464 -497 0
-567 565 464 0
-567 565 497 0
-567 464 497 0
567 -565 -464 0
567 -565 -497 0
567 -464 -497 0
-570 567 466 498 0
-570 567 -466 -498 0
-570 -567 466 -498 0
570 567 466 -498 0
-570 -567 -466 498 0
570 567 -466 498 0
570 -567 466 498 0
570 -567 -466 -498 0
-569 567 466 0
-569 567 498 0
-569 466 498 0
569 -567 -466 0
569 -567 -498 0
569 -466 -498 0
-572 569 468 499 0
-572 569 -468 -499 0
-572 -569 468 -499 0
572 569 468 -499 0
-572 -569 -468 499 0
572 569 -468 499 0
572 -569 468 499 0
572 -569 -468 -499 0
-571 569 468 0
-571 569 499 0
-571 468 499 0
571 -569 -468 0
571 -569 -499 0
571 -468 -499 0
-574 571 467 500 0
-574 571 -467 -500 0
-574 -571 467 -500 0
574 571 467 -500 0
-574 -571 -467 500 0
574 571 -467 500 0
574 -571 467 500 0
574 -571 -467 -500 0
-573 571 467 0
-573 571 500 0
-573 467 500 0
573 -571 -467 0
573 -571 -500 0
573 -467 -500 0
-575 1 0
-575 7 0
575 -1 -7 0
-576 2 0
-576 7 0
576 -2 -7 0
-577 3 0
-577 7 0
577 -3 -7 0
-578 4 0
-578 7 0
578 -4 -7 0
-579 5 0
-579 7 0
579 -5 -7 0
-580 6 0
-580 7 0
580 -6 -7 0
-581 7 0
581 -7 0
-582 8 0
-582 7 0
582 -8 -7 0
-583 9 0
-583 7 0
583 -9 -7 0
-584 10 0
-584 7 0
584 -10 -7 0
-585 11 0
-585 7 0
585 -11 -7 0
-586 12 0
-586 7 0
586 -12 -7 0
-587 13 0
-587 7 0
587 -13 -7 0
-588 14 0
-588 7 0
588 -14 -7 0
-589 15 0
-589 7 0
589 -15 -7 0
-590 16 0
-590 7 0
590 -16 -7 0
-591 17 0
-591 7 0
591 -17 -7 0
-592 18 0
-592 7 0
592 -18 -7 0
-593 19 0
-593 7 0
593 -19 -7 0
-594 20 0
-594 7 0
594 -20 -7 0
-595 21 0
-595 7 0
595 -21 -7 0
-596 22 0
-596 7 0
596 -22 -7 0
-597 23 0
-597 7 0
597 -23 -7 0
-598 24 0
-598 7 0
598 -24 -7 0
-599 25 0
-599 7 0
599 -25 -7 0
-600 26 0
-600 7 0
600 -26 -7 0
-601 27 0
-601 7 0
601 -27 -7 0
-602 28 0
-602 7 0
602 -28 -7 0
-603 29 0
-603 7 0
603 -29 -7 0
-604 30 0
-604 7 0
604 -30 -7 0
-605 31 0
-605 7 0
605 -31 -7 0
-606 32 0
-606 7 0
606 -32 -7 0
-502 608 0
502 -608 0
-607 0
504 607 -610 0
-504 -607 -610 0
-504 607 610 0
504 -607 610 0
-609 607 0
-609 504 0
609 -607 -504 0
506 609 -612 0
-506 -609 -612 0
-506 609 612 0
506 -609 612 0
-611 609 0
-611 506 0
611 -609 -506 0
508 611 -614 0
-508 -611 -614 0
-508 611 614 0
508 -611 614 0
-613 611 0
-613 508 0
613 -611 -508 0
510 613 -616 0
-510 -613 -616 0
-510 613 616 0
510 -613 616 0
-615 613 0
-615 510 0
615 -613 -510 0
512 615 -618 0
-512 -615 -618 0
-512 615 618 0
512 -615 618 0
-617 615 0
-617 512 0
617 -615 -512 0
-620 617 514 575 0
-620 617 -514 -575 0
-620 -617 514 -575 0
620 617 514 -575 0
-620 -617 -514 575 0
620 617 -514 575 0
620 -617 514 575 0
620 -617 -514 -575 0
-619 617 514 0
-619 617 575 0
-619 514 575 0
619 -617 -514 0
619 -617 -575 0
619 -514 -575 0
-622 619 516 576 0
-622 619 -516 -576 0
-622 -619 516 -576 0
622 619 516 -576 0
-622 -619 -516 576 0
622 619 -516 576 0
622 -619 516 576 0
622 -619 -516 -576 0
-621 619 516 0
-621 619 576 0
-621 516 576 0
621 -619 -516 0
621 -619 -576 0
621 -516 -576 0
-624 621 518 577 0
-624 621 -518 -577 0
-624 -621 518 -577 0
624 621 518 -577 0
-624 -621 -518 577 0
624 621 -518 577 0
624 -621 518 577 0
624 -621 -518 -577 0
-623 621 518 0
-623 621 577 0
-623 518 577 0
623 -621 -518 0
623 -621 -577 0
623 -518 -577 0
-626 623 520 578 0
-626 623 -520 -578 0
-626 -623 520 -578 0
626 623 520 -578 0
-626 -623 -520 578 0
626 623 -520 578 0
626 -623 520 578 0
626 -623 -520 -578 0
-625 623 520 0
-625 623 578 0
-625 520 578 0
625 -623 -520 0
625 -623 -578 0
625 -520 -578 0
-628 625 522 579 0
-628 625 -522 -579 0
-628 -625 522 -579 0
628 625 522 -579 0
-628 -625 -522 579 0
628 625 -522 579 0
628 -625 522 579 0
628 -625 -522 -579 0
-627 625 522 0
-627 625 579 0
-627 522 579 0
627 -625 -522 0
627 -625 -579 0
627 -522 -579 0
-630 627 524 580 0
-630 627 -524 -580 0
-630 -627 524 -580 0
630 627 524 -580 0
-630 -627 -524 580 0
630 627 -524 580 0
630 -627 524 580 0
630 -627 -524 -580 0
-629 627 524 0
-629 627 580 0
-629 524 580 0
629 -627 -524 0
629 -627 -580 0
629 -524 -580 0
-632 629 526 581 0
-632 629 -526 -581 0
-632 -629 526 -581 0
632 629 526 -581 0
-632 -629 -526 581 0
632 629 -526 581 0
632 -629 526 581 0
632 -629 -526 -581 0
-631 629 526 0
-631 629 581 0
-631 526 581 0
631 -629 -526 0
631 -629 -581 0
631 -526 -581 0
-634 631 528 582 0
-634 631 -528 -582 0
-634 -631 528 -582 0
634 631 528 -582 0
-634 -631 -528 582 0
634 631 -528 582 0
634 -631 528 582 0
634 -631 -528 -582 0
-633 631 528 0
-633 631 582 0
-633 528 582 0
633 -631 -528 0
633 -631 -582 0
633 -528 -582 0
-636 633 530 583 0
-636 633 -530 -583 0
-636 -633 530 -583 0
636 633 530 -583 0
-636 -633 -530 583 0
636 633 -530 583 0
636 -633 530 583 0
636 -633 -530 -583 0
-635 633 530 0
-635 633 583 0
-635 530 583 0
635 -633 -530 0
635 -633 -583 0
635 -530 -583 0
-638 635 532 584 0
-638 635 -532 -584 0
-638 -635 532 -584 0
638 635 532 -584 0
-638 -635 -532 584 0
638 635 -532 584 0
638 -635 532 584 0
638 -635 -532 -584 0
-637 635 532 0
-637 635 584 0
-637 532 584 0
637 -635 -532 0
637 -635 -584 0
637 -532 -584 0
-640 637 534 585 0
-640 637 -534 -585 0
-640 -637 534 -585 0
640 637 534 -585 0
-640 -637 -534 585 0
640 637 -534 585 0
640 -637 534 585 0
640 -637 -534 -585 0
-639 637 534 0
-639 637 585 0
-639 534 585 0
639 -637 -534 0
639 -637 -585 0
639 -534 -585 0
-642 639 536 586 0
-642 639 -536 -586 0
-642 -639 536 -586 0
642 639 536 -586 0
-642 -639 -536 586 0
642 639 -536 586 0
642 -639 536 586 0
642 -639 -536 -586 0
-641 639 536 0
-641 639 586 0
-641 536 586 0
641 -639 -536 0
641 -639 -586 0
641 -536 -586 0
-644 641 538 587 0
-644 641 -538 -587 0
-644 -641 538 -587 0
644 641 538 -587 0
-644 -641 -538 587 0
644 641 -538 587 0
644 -641 538 587 0
644 -641 -538 -587 0
-643 641 538 0
-643 641 587 0
-643 538 587 0
643 -641 -538 0
643 -641 -587 0
643 -538 -587 0
-646 643 540 588 0
-646 643 -540 -588 0
-646 -643 540 -588 0
646 643 540 -588 0
-646 -643 -540 588 0
646 643 -540 588 0
646 -643 540 588 0
646 -643 -540 -588 0
-645 643 540 0
-645 643 588 0
-645 540 588 0
645 -643 -540 0
645 -643 -588 0
645 -540 -588 0
-648 645 542 589 0
-648 645 -542 -589 0
-648 -645 542 -589 0
648 645 542 -589 0
-648 -645 -542 589 0
648 645 -542 589 0
648 -645 542 589 0
648 -645 -542 -589 0
-647 645 542 0
-647 645 589 0
-647 542 589 0
647 -645 -542 0
647 -645 -589 0
647 -542 -589 0
-650 647 544 590 0
-650 647 -544 -590 0
-650 -647 544 -590 0
650 647 544 -590 0
-650 -647 -544 590 0
650 647 -544 590 0
650 -647 544 590 0
650 -647 -544 -590 0
-649 647 544 0
-649 647 590 0
-649 544 590 0
649 -647 -544 0
649 -647 -590 0
649 -544 -590 0
-652 649 546 591 0
-652 649 -546 -591 0
-652 -649 546 -591 0
652 649 546 -591 0
-652 -649 -546 591 0
652 649 -546 591 0
652 -649 546 591 0
652 -649 -546 -591 0
-651 649 546 0
-651 649 591 0
-651 546 591 0
651 -649 -546 0
651 -649 -591 0
651 -546 -591 0
-654 651 548 592 0
-654 651 -548 -592 0
-654 -651 548 -592 0
654 651 548 -592 0
-654 -651 -548 592 0
654 651 -548 592 0
654 -651 548 592 0
654 -651 -548 -592 0
-653 651 548 0
-653 651 592 0
-653 548 592 0
653 -651 -548 0
653 -651 -592 0
653 -548 -592 0
-656 653 550 593 0
-656 653 -550 -593 0
-656 -653 550 -593 0
656 653 550 -593 0
-656 -653 -550 593 0
656 653 -550 593 0
656 -653 550 593 0
656 -653 -550 -593 0
-655 653 550 0
-655 653 593 0
-655 550 593 0
655 -653 -550 0
655 -653 -593 0
655 -550 -593 0
-658 655 552 594 0
-658 655 -552 -594 0
-658 -655 552 -594 0
658 655 552 -594 0
-658 -655 -552 594 0
658 655 -552 594 0
658 -655 552 594 0
658 -655 -552 -594 0
-657 655 552 0
-657 655 594 0
-657 552 594 0
657 -655 -552 0
657 -655 -594 0
657 -552 -594 0
-660 657 554 595 0
-660 657 -554 -595 0
-660 -657 554 -595 0
660 657 554 -595 0
-660 -657 -554 595 0
660 657 -554 595 0
660 -657 554 595 0
660 -657 -554 -595 0
-659 657 554 0
-659 657 595 0
-659 554 595 0
659 -657 -554 0
659 -657 -595 0
659 -554 -595 0
-662 659 556 596 0
-662 659 -556 -596 0
-662 -659 556 -596 0
662 659 556 -596 0
-662 -659 -556 596 0
662 659 -556 596 0
662 -659 556 596 0
662 -659 -556 -596 0
-661 659 556 0
-661 659 596 0
-661 556 596 0
661 -659 -556 0
661 -659 -596 0
661 -556 -596 0
-664 661 558 597 0
-664 661 -558 -597 0
-664 -661 558 -597 0
664 661 558 -597 0
-664 -661 -558 597 0
664 661 -558 597 0
664 -661 558 597 0
664 -661 -558 -597 0
-663 661 558 0
-663 661 597 0
-663 558 597 0
663 -661 -558 0
663 -661 -597 0
663 -558 -597 0
-666 663 560 598 0
-666 663 -560 -598 0
-666 -663 560 -598 0
666 663 560 -598 0
-666 -663 -560 598 0
666 663 -560 598 0
666 -663 560 598 0
666 -663 -560 -598 0
-665 663 560 0
-665 663 598 0
-665 560 598 0
665 -663 -560 0
665 -663 -598 0
665 -560 -598 0
-668 665 562 599 0
-668 665 -562 -599 0
-668 -665 562 -599 0
668 665 562 -599 0
-668 -665 -562 599 0
668 665 -562 599 0
668 -665 562 599 0
668 -665 -562 -599 0
-667 665 562 0
-667 665 599 0
-667 562 599 0
667 -665 -562 0
667 -665 -599 0
667 -562 -599 0
-670 667 564 600 0
-670 667 -564 -600 0
-670 -667 564 -600 0
670 667 564 -600 0
-670 -667 -564 600 0
670 667 -564 600 0
670 -667 564 600 0
670 -667 -564 -600 0
-669 667 564 0
-669 667 600 0
-669 564 600 0
669 -667 -564 0
669 -667 -600 0
669 -564 -600 0
-672 669 566 601 0
-672 669 -566 -601 0
-672 -669 566 -601 0
672 669 566 -601 0
-672 -669 -566 601 0
672 669 -566 601 0
672 -669 566 601 0
672 -669 -566 -601 0
-671 669 566 0
-671 669 601 0
-671 566 601 0
671 -669 -566 0
671 -669 -601 0
671 -566 -601 0
-674 671 568 602 0
-674 671 -568 -602 0
-674 -671 568 -602 0
674 671 568 -602 0
-674 -671 -568 602 0
674 671 -568 602 0
674 -671 568 602 0
674 -671 -568 -602 0
-673 671 568 0
-673 671 602 0
-673 568 602 0
673 -671 -568 0
673 -671 -602 0
673 -568 -602 0
-676 673 570 603 0
-676 673 -570 -603 0
-676 -673 570 -603 0
676 673 570 -603 0
-676 -673 -570 603 0
676 673 -570 603 0
676 -673 570 603 0
676 -673 -570 -603 0
-675 673 570 0
-675 673 603 0
-675 570 603 0
675 -673 -570 0
675 -673 -603 0
675 -570 -603 0
-678 675 572 604 0
-678 675 -572 -604 0
-678 -675 572 -604 0
678 675 572 -604 0
-678 -675 -572 604 0
678 675 -572 604 0
678 -675 572 604 0
678 -675 -572 -604 0
-677 675 572 0
-677 675 604 0
-677 572 604 0
677 -675 -572 0
677 -675 -604 0
677 -572 -604 0
-680 677 574 605 0
-680 677 -574 -605 0
-680 -677 574 -605 0
680 677 574 -605 0
-680 -677 -574 605 0
680 677 -574 605 0
680 -677 574 605 0
680 -677 -574 -605 0
-679 677 574 0
-679 677 605 0
-679 574 605 0
679 -677 -574 0
679 -677 -605 0
679 -574 -605 0
-682 679 573 606 0
-682 679 -573 -606 0
-682 -679 573 -606 0
682 679 573 -606 0
-682 -679 -573 606 0
682 679 -573 606 0
682 -679 573 606 0
682 -679 -573 -606 0
-681 679 573 0
-681 679 606 0
-681 573 606 0
681 -679 -573 0
681 -679 -606 0
681 -573 -606 0
-683 1 0
-683 8 0
683 -1 -8 0
-684 2 0
-684 8 0
684 -2 -8 0
-685 3 0
-685 8 0
685 -3 -8 0
-686 4 0
-686 8 0
686 -4 -8 0
-687 5 0
-687 8 0
687 -5 -8 0
-688 6 0
-688 8 0
688 -6 -8 0
-689 7 0
-689 8 0
689 -7 -8 0
-690 8 0
690 -8 0
-691 9 0
-691 8 0
691 -9 -8 0
-692 10 0
-692 8 0
692 -10 -8 0
-693 11 0
-693 8 0
693 -11 -8 0
-694 12 0
-694 8 0
694 -12 -8 0
-695 13 0
-695 8 0
695 -13 -8 0
-696 14 0
-696 8 0
696 -14 -8 0
-697 15 0
-697 8 0
697 -15 -8 0
-698 16 0
-698 8 0
698 -16 -8 0
-699 17 0
-699 8 0
699 -17 -8 0
-700 18 0
-700 8 0
700 -18 -8 0
-701 19 0
-701 8 0
701 -19 -8 0
-702 20 0
-702 8 0
702 -20 -8 0
-703 21 0
-703 8 0
703 -21 -8 0
-704 22 0
-704 8 0
704 -22 -8 0
-705 23 0
-705 8 0
705 -23 -8 0
-706 24 0
-706 8 0
706 -24 -8 0
-707 25 0
-707 8 0
707 -25 -8 0
-708 26 0
-708 8 0
708 -26 -8 0
-709 27 0
-709 8 0
709 -27 -8 0
-710 28 0
-710 8 0
710 -28 -8 0
-711 29 0
-711 8 0
711 -29 -8 0
-712 30 0
-712 8 0
712 -30 -8 0
-713 31 0
-713 8 0
713 -31 -8 0
-714 32 0
-714 8 0
714 -32 -8 0
-608 716 0
608 -716 0
-715 0
610 715 -718 0
-610 -715 -718 0
-610 715 718 0
610 -715 718 0
-717 715 0
-717 610 0
717 -715 -610 0
612 717 -720 0
-612 -717 -720 0
-612 717 720 0
612 -717 720 0
-719 717 0
-719 612 0
719 -717 -612 0
614 719 -722 0
-614 -719 -722 0
-614 719 722 0
614 -719 722 0
-721 719 0
-721 614 0
721 -719 -614 0
616 721 -724 0
-616 -721 -724 0
-616 721 724 0
616 -721 724 0
-723 721 0
-723 616 0
723 -721 -616 0
618 723 -726 0
-618 -723 -726 0
-618 723 726 0
618 -723 726 0
-725 723 0
-725 618 0
725 -723 -618 0
620 725 -728 0
-620 -725 -728 0
-620 725 728 0
620 -725 728 0
-727 725 0
-727 620 0
727 -725 -620 0
-730 727 622 683 0
-730 727 -622 -683 0
-730 -727 622 -683 0
730 727 622 -683 0
-730 -727 -622 683 0
730 727 -622 683 0
730 -727 622 683 0
730 -727 -622 -683 0
-729 727 622 0
-729 727 683 0
-729 622 683 0
729 -727 -622 0
729 -727 -683 0
729 -622 -683 0
-732 729 624 684 0
-732 729 -624 -684 0
-732 -729 624 -684 0
732 729 624 -684 0
-732 -729 -624 684 0
732 729 -624 684 0
732 -729 624 684 0
732 -729 -624 -684 0
-731 729 624 0
-731 729 684 0
-731 624 684 0
731 -729 -624 0
731 -729 -684 0
731 -624 -684 0
-734 731 626 685 0
-734 731 -626 -685 0
-734 -731 626 -685 0
734 731 626 -685 0
-734 -731 -626 685 0
734 731 -626 685 0
734 -731 626 685 0
734 -731 -626 -685 0
-733 731 626 0
-733 731 685 0
-733 626 685 0
733 -731 -626 0
733 -731 -685 0
733 -626 -685 0
-736 733 628 686 0
-736 733 -628 -686 0
-736 -733 628 -686 0
736 733 628 -686 0
-736 -733 -628 686 0
736 733 -628 686 0
736 -733 628 686 0
736 -733 -628 -686 0
-735 733 628 0
-735 733 686 0
-735 628 686 0
735 -733 -628 0
735 -733 -686 0
735 -628 -686 0
-738 735 630 687 0
-738 735 -630 -687 0
-738 -735 630 -687 0
738 735 630 -687 0
-738 -735 -630 687 0
738 735 -630 687 0
738 -735 630 687 0
738 -735 -630 -687 0
-737 735 630 0
-737 735 687 0
-737 630 687 0
737 -735 -630 0
737 -735 -687 0
737 -630 -687 0
-740 737 632 688 0
-740 737 -632 -688 0
-740 -737 632 -688 0
740 737 632 -688 0
-740 -737 -632 688 0
740 737 -632 688 0
740 -737 632 688 0
740 -737 -632 -688 0
-739 737 632 0
-739 737 688 0
-739 632 688 0
739 -737 -632 0
739 -737 -688 0
739 -632 -688 0
-742 739 634 689 0
-742 739 -634 -689 0
-742 -739 634 -689 0
742 739 634 -689 0
-742 -739 -634 689 0
742 739 -634 689 0
742 -739 634 689 0
742 -739 -634 -689 0
-741 739 634 0
-741 739 689 0
-741 634 689 0
741 -739 -634 0
741 -739 -689 0
741 -634 -689 0
-744 741 636 690 0
-744 741 -636 -690 0
-744 -741 636 -690 0
744 741 636 -690 0
-744 -741 -636 690 0
744 741 -636 690 0
744 -741 636 690 0
744 -741 -636 -690 0
-743 741 636 0
-743 741 690 0
-743 636 690 0
743 -741 -636 0
743 -741 -690 0
743 -636 -690 0
-746 743 638 691 0
-746 743 -638 -691 0
-746 -743 638 -691 0
746 743 638 -691 0
-746 -743 -638 691 0
746 743 -638 691 0
746 -743 638 691 0
746 -743 -638 -691 0
-745 743 638 0
-745 743 691 0
-745 638 691 0
745 -743 -638 0
745 -743 -691 0
745 -638 -691 0
-748 745 640 692 0
-748 745 -640 -692 0
-748 -745 640 -692 0
748 745 640 -692 0
-748 -745 -640 692 0
748 745 -640 692 0
748 -745 640 692 0
748 -745 -640 -692 0
-747 745 640 0
-747 745 692 0
-747 640 692 0
747 -745 -640 0
747 -745 -692 0
747 -640 -692 0
-750 747 642 693 0
-750 747 -642 -693 0
-750 -747 642 -693 0
750 747 642 -693 0
-750 -747 -642 693 0
750 747 -642 693 0
750 -747 642 693 0
750 -747 -642 -693 0
-749 747 642 0
-749 747 693 0
-749 642 693 0
749 -747 -642 0
749 -747 -693 0
749 -642 -693 0
-752 749 644 694 0
-752 749 -644 -694 0
-752 -749 644 -694 0
752 749 644 -694 0
-752 -749 -644 694 0
752 749 -644 694 0
752 -749 644 694 0
752 -749 -644 -694 0
-751 749 644 0
-751 749 694 0
-751 644 694 0
751 -749 -644 0
751 -749 -694 0
751 -644 -694 0
-754 751 646 695 0
-754 751 -646 -695 0
-754 -751 646 -695 0
754 751 646 -695 0
-754 -751 -646 695 0
754 751 -646 695 0
754 -751 646 695 0
754 -751 -646 -695 0
-753 751 646 0
-753 751 695 0
-753 646 695 0
753 -751 -646 0
753 -751 -695 0
753 -646 -695 0
-756 753 648 696 0
-756 753 -648 -696 0
-756 -753 648 -696 0
756 753 648 -696 0
-756 -753 -648 696 0
756 753 -648 696 0
756 -753 648 696 0
756 -753 -648 -696 0
-755 753 648 0
-755 753 696 0
-755 648 696 0
755 -753 -648 0
755 -753 -696 0
755 -648 -696 0
-758 755 650 697 0
-758 755 -650 -697 0
-758 -755 650 -697 0
758 755 650 -697 0
-758 -755 -650 697 0
758 755 -650 697 0
758 -755 650 697 0
758 -755 -650 -697 0
-757 755 650 0
-757 755 697 0
-757 650 697 0
757 -755 -650 0
757 -755 -697 0
757 -650 -697 0
-760 757 652 698 0
-760 757 -652 -698 0
-760 -757 652 -698 0
760 757 652 -698 0
-760 -757 -652 698 0
760 757 -652 698 0
760 -757 652 698 0
760 -757 -652 -698 0
-759 757 652 0
-759 757 698 0
-759 652 698 0
759 -757 -652 0
759 -757 -698 0
759 -652 -698 0
-762 759 654 699 0
-762 759 -654 -699 0
-762 -759 654 -699 0
762 759 654 -699 0
-762 -759 -654 699 0
762 759 -654 699 0
762 -759 654 699 0
762 -759 -654 -699 0
-761 759 654 0
-761 759 699 0
-761 654 699 0
761 -759 -654 0
761 -759 -699 0
761 -654 -699 0
-764 761 656 700 0
-764 761 -656 -700 0
-764 -761 656 -700 0
764 761 656 -700 0
-764 -761 -656 700 0
764 761 -656 700 0
764 -761 656 700 0
764 -761 -656 -700 0
-763 761 656 0
-763 761 700 0
-763 656 700 0
763 -761 -656 0
763 -761 -700 0
763 -656 -700 0
-766 763 658 701 0
-766 763 -658 -701 0
-766 -763 658 -701 0
766 763 658 -701 0
-766 -763 -658 701 0
766 763 -658 701 0
766 -763 658 701 0
766 -763 -658 -701 0
-765 763 658 0
-765 763 701 0
-765 658 701 0
765 -763 -658 0
765 -763 -701 0
765 -658 -701 0
-768 765 660 702 0
-768 765 -660 -702 0
-768 -765 660 -702 0
768 765 660 -702 0
-768 -765 -660 702 0
768 765 -660 702 0
768 -765 660 702 0
768 -765 -660 -702 0
-767 765 660 0
-767 765 702 0
-767 660 702 0
767 -765 -660 0
767 -765 -702 0
767 -660 -702 0
-770 767 662 703 0
-770 767 -662 -703 0
-770 -767 662 -703 0
770 767 662 -703 0
-770 -767 -662 703 0
770 767 -662 703 0
770 -767 662 703 0
770 -767 -662 -703 0
-769 767 662 0
-769 767 703 0
-769 662 703 0
769 -767 -662 0
769 -767 -703 0
769 -662 -703 0
-772 769 664 704 0
-772 769 -664 -704 0
-772 -769 664 -704 0
772 769 664 -704 0
-772 -769 -664 704 0
772 769 -664 704 0
772 -769 664 704 0
772 -769 -664 -704 0
-771 769 664 0
-771 769 704 0
-771 664 704 0
771 -769 -664 0
771 -769 -704 0
771 -664 -704 0
-774 771 666 705 0
-774 771 -666 -705 0
-774 -771 666 -705 0
774 771 666 -705 0
-774 -771 -666 705 0
774 771 -666 705 0
774 -771 666 705 0
774 -771 -666 -705 0
-773 771 666 0
-773 771 705 0
-773 666 705 0
773 -771 -666 0
773 -771 -705 0
773 -666 -705 0
-776 773 668 706 0
-776 773 -668 -706 0
-776 -773 668 -706 0
776 773 668 -706 0
-776 -773 -668 706 0
776 773 -668 706 0
776 -773 668 706 0
776 -773 -668 -706 0
-775 773 668 0
-775 773 706 0
-775 668 706 0
775 -773 -668 0
775 -773 -706 0
775 -668 -706 0
-778 775 670 707 0
-778 775 -670 -707 0
-778 -775 670 -707 0
778 775 670 -707 0
-778 -775 -670 707 0
778 775 -670 707 0
778 -775 670 707 0
778 -775 -670 -707 0
-777 775 670 0
-777 775 707 0
-777 670 707 0
777 -775 -670 0
777 -775 -707 0
777 -670 -707 0
-780 777 672 708 0
-780 777 -672 -708 0
-780 -777 672 -708 0
780 777 672 -708 0
-780 -777 -672 708 0
780 777 -672 708 0
780 -777 672 708 0
780 -777 -672 -708 0
-779 777 672 0
-779 777 708 0
-779 672 708 0
779 -777 -672 0
779 -777 -708 0
779 -672 -708 0
-782 779 674 709 0
-782 779 -674 -709 0
-782 -779 674 -709 0
782 779 674 -709 0
-782 -779 -674 709 0
782 779 -674 709 0
782 -779 674 709 0
782 -779 -674 -709 0
-781 779 674 0
-781 779 709 0
-781 674 709 0
781 -779 -674 0
781 -779 -709 0
781 -674 -709 0
-784 781 676 710 0
-784 781 -676 -710 0
-784 -781 676 -710 0
784 781 676 -710 0
-784 -781 -676 710 0
784 781 -676 710 0
784 -781 676 710 0
784 -781 -676 -710 0
-783 781 676 0
-783 781 710 0
-783 676 710 0
783 -781 -676 0
783 -781 -710 0
783 -676 -710 0
-786 783 678 711 0
-786 783 -678 -711 0
-786 -783 678 -711 0
786 783 678 -711 0
-786 -783 -678 711 0
786 783 -678 711 0
786 -783 678 711 0
786 -783 -678 -711 0
-785 783 678 0
-785 783 711 0
-785 678 711 0
785 -783 -678 0
785 -783 -711 0
785 -678 -711 0
-788 785 680 712 0
-788 785 -680 -712 0
-788 -785 680 -712 0
788 785 680 -712 0
-788 -785 -680 712 0
788 785 -680 712 0
788 -785 680 712 0
788 -785 -680 -712 0
-787 785 680 0
-787 785 712 0
-787 680 712 0
787 -785 -680 0
787 -785 -712 0
787 -680 -712 0
-790 787 682 713 0
-790 787 -682 -713 0
-790 -787 682 -713 0
790 787 682 -713 0
-790 -787 -682 713 0
790 787 -682 713 0
790 -787 682 713 0
790 -787 -682 -713 0
-789 787 682 0
-789 787 713 0
-789 682 713 0
789 -787 -682 0
789 -787 -713 0
789 -682 -713 0
-792 789 681 714 0
-792 789 -681 -714 0
-792 -789 681 -714 0
792 789 681 -714 0
-792 -789 -681 714 0
792 789 -681 714 0
792 -789 681 714 0
792 -789 -681 -714 0
-791 789 681 0
-791 789 714 0
-791 681 714 0
791 -789 -681 0
791 -789 -714 0
791 -681 -714 0
-793 1 0
-793 9 0
793 -1 -9 0
-794 2 0
-794 9 0
794 -2 -9 0
-795 3 0
-795 9 0
795 -3 -9 0
-796 4 0
-796 9 0
796 -4 -9 0
-797 5 0
-797 9 0
797 -5 -9 0
-798 6 0
-798 9 0
798 -6 -9 0
-799 7 0
-799 9 0
799 -7 -9 0
-800 8 0
-800 9 0
800 -8 -9 0
-801 9 0
801 -9 0
-802 10 0
-802 9 0
802 -10 -9 0
-803 11 0
-803 9 0
803 -11 -9 0
-804 12 0
-804 9 0
804 -12 -9 0
-805 13 0
-805 9 0
805 -13 -9 0
-806 14 0
-806 9 0
806 -14 -9 0
-807 15 0
-807 9 0
807 -15 -9 0
-808 16 0
-808 9 0
808 -16 -9 0
-809 17 0
-809 9 0
809 -17 -9 0
-810 18 0
-810 9 0
810 -18 -9 0
-811 19 0
-811 9 0
811 -19 -9 0
-812 20 0
-812 9 0
812 -20 -9 0
-813 21 0
-813 9 0
813 -21 -9 0
-814 22 0
-814 9 0
814 -22 -9 0
-815 23 0
-815 9 0
815 -23 -9 0
-816 24 0
-816 9 0
816 -24 -9 0
-817 25 0
-817 9 0
817 -25 -9 0
-818 26 0
-818 9 0
818 -26 -9 0
-819 27 0
-819 9 0
819 -27 -9 0
-820 28 0
-820 9 0
820 -28 -9 0
-821 29 0
-821 9 0
821 -29 -9 0
-822 30 0
-822 9 0
822 -30 -9 0
-823 31 0
-823 9 0
823 -31 -9 0
-824 32 0
-824 9 0
824 -32 -9 0
-716 826 0
716 -826 0
-825 0
718 825 -828 0
-718 -825 -828 0
-718 825 828 0
718 -825 828 0
-827 825 0
-827 718 0
827 -825 -718 0
720 827 -830 0
-720 -827 -830 0
-720 827 830 0
720 -827 830 0
-829 827 0
-829 720 0
829 -827 -720 0
722 829 -832 0
-722 -829 -832 0
-722 829 832 0
722 -829 832 0
-831 829 0
-831 722 0
831 -829 -722 0
724 831 -834 0
-724 -831 -834 0
-724 831 834 0
724 -831 834 0
-833 831 0
-833 724 0
833 -831 -724 0
726 833 -836 0
-726 -833 -836 0
-726 833 836 0
726 -833 836 0
-835 833 0
-835 726 0
835 -833 -726 0
728 835 -838 0
-728 -835 -838 0
-728 835 838 0
728 -835 838 0
-837 835 0
-837 728 0
837 -835 -728 0
730 837 -840 0
-730 -837 -840 0
-730 837 840 0
730 -837 840 0
-839 837 0
-839 730 0
839 -837 -730 0
-842 839 732 793 0
-842 839 -732 -793 0
-842 -839 732 -793 0
842 839 732 -793 0
-842 -839 -732 793 0
842 839 -732 793 0
842 -839 732 793 0
842 -839 -732 -793 0
-841 839 732 0
-841 839 793 0
-841 732 793 0
841 -839 -732 0
841 -839 -793 0
841 -732 -793 0
-844 841 734 794 0
-844 841 -734 -794 0
-844 -841 734 -794 0
844 841 734 -794 0
-844 -841 -734 794 0
844 841 -734 794 0
844 -841 734 794 0
844 -841 -734 -794 0
-843 841 734 0
-843 841 794 0
-843 734 794 0
843 -841 -734 0
843 -841 -794 0
843 -734 -794 0
-846 843 736 795 0
-846 843 -736 -795 0
-846 -843 736 -795 0
846 843 736 -795 0
-846 -843 -736 795 0
846 843 -736 795 0
846 -843 736 795 0
846 -843 -736 -795 0
-845 843 736 0
-845 843 795 0
-845 736 795 0
845 -843 -736 0
845 -843 -795 0
845 -736 -795 0
-848 845 738 796 0
-848 845 -738 -796 0
-848 -845 738 -796 0
848 845 738 -796 0
-848 -845 -738 796 0
848 845 -738 796 0
848 -845 738 796 0
848 -845 -738 -796 0
-847 845 738 0
-847 845 796 0
-847 738 796 0
847 -845 -738 0
847 -845 -796 0
847 -738 -796 0
-850 847 740 797 0
-850 847 -740 -797 0
-850 -847 740 -797 0
850 847 740 -797 0
-850 -847 -740 797 0
850 847 -740 797 0
850 -847 740 797 0
850 -847 -740 -797 0
-849 847 740 0
-849 847 797 0
-849 740 797 0
849 -847 -740 0
849 -847 -797 0
849 -740 -797 0
-852 849 742 798 0
-852 849 -742 -798 0
-852 -849 742 -798 0
852 849 742 -798 0
-852 -849 -742 798 0
852 849 -742 798 0
852 -849 742 798 0
852 -849 -742 -798 0
-851 849 742 0
-851 849 798 0
-851 742 798 0
851 -849 -742 0
851 -849 -798 0
851 -742 -798 0
-854 851 744 799 0
-854 851 -744 -799 0
-854 -851 744 -799 0
854 851 744 -799 0
-854 -851 -744 799 0
854 851 -744 799 0
854 -851 744 799 0
854 -851 -744 -799 0
-853 851 744 0
-853 851 799 0
-853 744 799 0
853 -851 -744 0
853 -851 -799 0
853 -744 -799 0
-856 853 746 800 0
-856 853 -746 -800 0
-856 -853 746 -800 0
856 853 746 -800 0
-856 -853 -746 800 0
856 853 -746 800 0
856 -853 746 800 0
856 -853 -746 -800 0
-855 853 746 0
-855 853 800 0
-855 746 800 0
855 -853 -746 0
855 -853 -800 0
855 -746 -800 0
-858 855 748 801 0
-858 855 -748 -801 0
-858 -855 748 -801 0
858 855 748 -801 0
-858 -855 -748 801 0
858 855 -748 801 0
858 -855 748 801 0
858 -855 -748 -801 0
-857 855 748 0
-857 855 801 0
-857 748 801 0
857 -855 -748 0
857 -855 -801 0
857 -748 -801 0
-860 857 750 802 0
-860 857 -750 -802 0
-860 -857 750 -802 0
860 857 750 -802 0
-860 -857 -750 802 0
860 857 -750 802 0
860 -857 750 802 0
860 -857 -750 -802 0
-859 857 750 0
-859 857 802 0
-859 750 802 0
859 -857 -750 0
859 -857 -802 0
859 -750 -802 0
-862 859 752 803 0
-862 859 -752 -803 0
-862 -859 752 -803 0
862 859 752 -803 0
-862 -859 -752 803 0
862 859 -752 803 0
862 -859 752 803 0
862 -859 -752 -803 0
-861 859 752 0
-861 859 803 0
-861 752 803 0
861 -859 -752 0
861 -859 -803 0
861 -752 -803 0
-864 861 754 804 0
-864 861 -754 -804 0
-864 -861 754 -804 0
864 861 754 -804 0
-864 -861 -754 804 0
864 861 -754 804 0
864 -861 754 804 0
864 -861 -754 -804 0
-863 861 754 0
-863 861 804 0
-863 754 804 0
863 -861 -754 0
863 -861 -804 0
863 -754 -804 0
-866 863 756 805 0
-866 863 -756 -805 0
-866 -863 756 -805 0
866 863 756 -805 0
-866 -863 -756 805 0
866 863 -756 805 0
866 -863 756 805 0
866 -863 -756 -805 0
-865 863 756 0
-865 863 805 0
-865 756 805 0
865 -863 -756 0
865 -863 -805 0
865 -756 -805 0
-868 865 758 806 0
-868 865 -758 -806 0
-868 -865 758 -806 0
868 865 758 -806 0
-868 -865 -758 806 0
868 865 -758 806 0
868 -865 758 806 0
868 -865 -758 -806 0
-867 865 758 0
-867 865 806 0
-867 758 806 0
867 -865 -758 0
867 -865 -806 0
867 -758 -806 0
-870 867 760 807 0
-870 867 -760 -807 0
-870 -867 760 -807 0
870 867 760 -807 0
-870 -867 -760 807 0
870 867 -760 807 0
870 -867 760 807 0
870 -867 -760 -807 0
-869 867 760 0
-869 867 807 0
-869 760 807 0
869 -867 -760 0
869 -867 -807 0
869 -760 -807 0
-872 869 762 808 0
-872 869 -762 -808 0
-872 -869 762 -808 0
872 869 762 -808 0
-872 -869 -762 808 0
872 869 -762 808 0
872 -869 762 808 0
872 -869 -762 -808 0
-871 869 762 0
-871 869 808 0
-871 762 808 0
871 -869 -762 0
871 -869 -808 0
871 -762 -808 0
-874 871 764 809 0
-874 871 -764 -809 0
-874 -871 764 -809 0
874 871 764 -809 0
-874 -871 -764 809 0
874 871 -764 809 0
874 -871 764 809 0
874 -871 -764 -809 0
-873 871 764 0
-873 871 809 0
-873 764 809 0
873 -871 -764 0
873 -871 -809 0
873 -764 -809 0
-876 873 766 810 0
-876 873 -766 -810 0
-876 -873 766 -810 0
876 873 766 -810 0
-876 -873 -766 810 0
876 873 -766 810 0
876 -873 766 810 0
876 -873 -766 -810 0
-875 873 766 0
-875 873 810 0
-875 766 810 0
875 -873 -766 0
875 -873 -810 0
875 -766 -810 0
-878 875 768 811 0
-878 875 -768 -811 0
-878 -875 768 -811 0
878 875 768 -811 0
-878 -875 -768 811 0
878 875 -768 811 0
878 -875 768 811 0
878 -875 -768 -811 0
-877 875 768 0
-877 875 811 0
-877 768 811 0
877 -875 -768 0
877 -875 -811 0
877 -768 -811 0
-880 877 770 812 0
-880 877 -770 -812 0
-880 -877 770 -812 0
880 877 770 -812 0
-880 -877 -770 812 0
880 877 -770 812 0
880 -877 770 812 0
880 -877 -770 -812 0
-879 877 770 0
-879 877 812 0
-879 770 812 0
879 -877 -770 0
879 -877 -812 0
879 -770 -812 0
-882 879 772 813 0
-882 879 -772 -813 0
-882 -879 772 -813 0
882 879 772 -813 0
-882 -879 -772 813 0
882 879 -772 813 0
882 -879 772 813 0
882 -879 -772 -813 0
-881 879 772 0
-881 879 813 0
-881 772 813 0
881 -879 -772 0
881 -879 -813 0
881 -772 -813 0
-884 881 774 814 0
-884 881 -774 -814 0
-884 -881 774 -814 0
884 881 774 -814 0
-884 -881 -774 814 0
884 881 -774 814 0
884 -881 774 814 0
884 -881 -774 -814 0
-883 881 774 0
-883 881 814 0
-883 774 814 0
883 -881 -774 0
883 -881 -814 0
883 -774 -814 0
-886 883 776 815 0
-886 883 -776 -815 0
-886 -883 776 -815 0
886 883 776 -815 0
-886 -883 -776 815 0
886 883 -776 815 0
886 -883 776 815 0
886 -883 -776 -815 0
-885 883 776 0
-885 883 815 0
-885 776 815 0
885 -883 -776 0
885 -883 -815 0
885 -776 -815 0
-888 885 778 816 0
-888 885 -778 -816 0
-888 -885 778 -816 0
888 885 778 -816 0
-888 -885 -778 816 0
888 885 -778 816 0
888 -885 778 816 0
888 -885 -778 -816 0
-887 885 778 0
-887 885 816 0
-887 778 816 0
887 -885 -778 0
887 -885 -816 0
887 -778 -816 0
-890 887 780 817 0
-890 887 -780 -817 0
-890 -887 780 -817 0
890 887 780 -817 0
-890 -887 -780 817 0
890 887 -780 817 0
890 -887 780 817 0
890 -887 -780 -817 0
-889 887 780 0
-889 887 817 0
-889 780 817 0
889 -887 -780 0
889 -887 -817 0
889 -780 -817 0
-892 889 782 818 0
-892 889 -782 -818 0
-892 -889 782 -818 0
892 889 782 -818 0
-892 -889 -782 818 0
892 889 -782 818 0
892 -889 782 818 0
892 -889 -782 -818 0
-891 889 782 0
-891 889 818 0
-891 782 818 0
891 -889 -782 0
891 -889 -818 0
891 -782 -818 0
-894 891 784 819 0
-894 891 -784 -819 0
-894 -891 784 -819 0
894 891 784 -819 0
-894 -891 -784 819 0
894 891 -784 819 0
894 -891 784 819 0
894 -891 -784 -819 0
-893 891 784 0
-893 891 819 0
-893 784 819 0
893 -891 -784 0
893 -891 -819 0
893 -784 -819 0
-896 893 786 820 0
-896 893 -786 -820 0
-896 -893 786 -820 0
896 893 786 -820 0
-896 -893 -786 820 0
896 893 -786 820 0
896 -893 786 820 0
896 -893 -786 -820 0
-895 893 786 0
-895 893 820 0
-895 786 820 0
895 -893 -786 0
895 -893 -820 0
895 -786 -820 0
-898 895 788 821 0
-898 895 -788 -821 0
-898 -895 788 -821 0
898 895 788 -821 0
-898 -895 -788 821 0
898 895 -788 821 0
898 -895 788 821 0
898 -895 -788 -821 0
-897 895 788 0
-897 895 821 0
-897 788 821 0
897 -895 -788 0
897 -895 -821 0
897 -788 -821 0
-900 897 790 822 0
-900 897 -790 -822 0
-900 -897 790 -822 0
900 897 790 -822 0
-900 -897 -790 822 0
900 897 -790 822 0
900 -897 790 822 0
900 -897 -790 -822 0
-899 897 790 0
-899 897 822 0
-899 790 822 0
899 -897 -790 0
899 -897 -822 0
899 -790 -822 0
-902 899 792 823 0
-902 899 -792 -823 0
-902 -899 792 -823 0
902 899 792 -823 0
-902 -899 -792 823 0
902 899 -792 823 0
902 -899 792 823 0
902 -899 -792 -823 0
-901 899 792 0
-901 899 823 0
-901 792 823 0
901 -899 -792 0
901 -899 -823 0
901 -792 -823 0
-904 901 791 824 0
-904 901 -791 -824 0
-904 -901 791 -824 0
904 901 791 -824 0
-904 -901 -791 824 0
904 901 -791 824 0
904 -901 791 824 0
904 -901 -791 -824 0
-903 901 791 0
-903 901 824 0
-903 791 824 0
903 -901 -791 0
903 -901 -824 0
903 -791 -824 0
-905 1 0
-905 10 0
905 -1 -10 0
-906 2 0
-906 10 0
906 -2 -10 0
-907 3 0
-907 10 0
907 -3 -10 0
-908 4 0
-908 10 0
908 -4 -10 0
-909 5 0
-909 10 0
909 -5 -10 0
-910 6 0
-910 10 0
910 -6 -10 0
-911 7 0
-911 10 0
911 -7 -10 0
-912 8 0
-912 10 0
912 -8 -10 0
-913 9 0
-913 10 0
913 -9 -10 0
-914 10 0
914 -10 0
-915 11 0
-915 10 0
915 -11 -10 0
-916 12 0
-916 10 0
916 -12 -10 0
-917 13 0
-917 10 0
917 -13 -10 0
-918 14 0
-918 10 0
918 -14 -10 0
-919 15 0
-919 10 0
919 -15 -10 0
-920 16 0
-920 10 0
920 -16 -10 0
-921 17 0
-921 10 0
921 -17 -10 0
-922 18 0
-922 10 0
922 -18 -10 0
-923 19 0
-923 10 0
923 -19 -10 0
-924 20 0
-924 10 0
924 -20 -10 0
-925 21 0
-925 10 0
925 -21 -10 0
-926 22 0
-926 10 0
926 -22 -10 0
-927 23 0
-927 10 0
927 -23 -10 0
-928 24 0
-928 10 0
928 -24 -10 0
-929 25 0
-929 10 0
929 -25 -10 0
-930 26 0
-930 10 0
930 -26 -10 0
-931 27 0
-931 10 0
931 -27 -10 0
-932 28 0
-932 10 0
932 -28 -10 0
-933 29 0
-933 10 0
933 -29 -10 0
-934 30 0
-934 10 0
934 -30 -10 0
-935 31 0
-935 10 0
935 -31 -10 0
-936 32 0
-936 10 0
936 -32 -10 0
-826 938 0
826 -938 0
-937 0
828 937 -940 0
-828 -937 -940 0
-828 937 940 0
828 -937 940 0
-939 937 0
-939 828 0
939 -937 -828 0
830 939 -942 0
-830 -939 -942 0
-830 939 942 0
830 -939 942 0
-941 939 0
-941 830 0
941 -939 -830 0
832 941 -944 0
-832 -941 -944 0
-832 941 944 0
832 -941 944 0
-943 941 0
-943 832 0
943 -941 -832 0
834 943 -946 0
-834 -943 -946 0
-834 943 946 0
834 -943 946 0
-945 943 0
-945 834 0
945 -943 -834 0
836 945 -948 0
-836 -945 -948 0
-836 945 948 0
836 -945 948 0
-947 945 0
-947 836 0
947 -945 -836 0
838 947 -950 0
-838 -947 -950 0
-838 947 950 0
838 -947 950 0
-949 947 0
-949 838 0
949 -947 -838 0
840 949 -952 0
-840 -949 -952 0
-840 949 952 0
840 -949 952 0
-951 949 0
-951 840 0
951 -949 -840 0
842 951 -954 0
-842 -951 -954 0
-842 951 954 0
842 -951 954 0
-953 951 0
-953 842 0
953 -951 -842 0
-956 953 844 905 0
-956 953 -844 -905 0
-956 -953 844 -905 0
956 953 844 -905 0
-956 -953 -844 905 0
956 953 -844 905 0
956 -953 844 905 0
956 -953 -844 -905 0
-955 953 844 0
-955 953 905 0
-955 844 905 0
955 -953 -844 0
955 -953 -905 0
955 -844 -905 0
-958 955 846 906 0
-958 955 -846 -906 0
-958 -955 846 -906 0
958 955 846 -906 0
-958 -955 -846 906 0
958 955 -846 906 0
958 -955 846 906 0
958 -955 -846 -906 0
-957 955 846 0
-957 955 906 0
-957 846 906 0
957 -955 -846 0
957 -955 -906 0
957 -846 -906 0
-960 957 848 907 0
-960 957 -848 -907 0
-960 -957 848 -907 0
960 957 848 -907 0
-960 -957 -848 907 0
960 957 -848 907 0
960 -957 848 907 0
960 -957 -848 -907 0
-959 957 848 0
-959 957 907 0
-959 848 907 0
959 -957 -848 0
959 -957 -907 0
959 -848 -907 0
-962 959 850 908 0
-962 959 -850 -908 0
-962 -959 850 -908 0
962 959 850 -908 0
-962 -959 -850 908 0
962 959 -850 908 0
962 -959 850 908 0
962 -959 -850 -908 0
-961 959 850 0
-961 959 908 0
-961 850 908 0
961 -959 -850 0
961 -959 -908 0
961 -850 -908 0
-964 961 852 909 0
-964 961 -852 -909 0
-964 -961 852 -909 0
964 961 852 -909 0
-964 -961 -852 909 0
964 961 -852 909 0
964 -961 852 909 0
964 -961 -852 -909 0
-963 961 852 0
-963 961 909 0
-963 852 909 0
963 -961 -852 0
963 -961 -909 0
963 -852 -909 0
-966 963 854 910 0
-966 963 -854 -910 0
-966 -963 854 -910 0
966 963 854 -910 0
-966 -963 -854 910 0
966 963 -854 910 0
966 -963 854 910 0
966 -963 -854 -910 0
-965 963 854 0
-965 963 910 0
-965 854 910 0
965 -963 -854 0
965 -963 -910 0
965 -854 -910 0
-968 965 856 911 0
-968 965 -856 -911 0
-968 -965 856 -911 0
968 965 856 -911 0
-968 -965 -856 911 0
968 965 -856 911 0
968 -965 856 911 0
968 -965 -856 -911 0
-967 965 856 0
-967 965 911 0
-967 856 911 0
967 -965 -856 0
967 -965 -911 0
967 -856 -911 0
-970 967 858 912 0
-970 967 -858 -912 0
-970 -967 858 -912 0
970 967 858 -912 0
-970 -967 -858 912 0
970 967 -858 912 0
970 -967 858 912 0
970 -967 -858 -912 0
-969 967 858 0
-969 967 912 0
-969 858 912 0
969 -967 -858 0
969 -967 -912 0
969 -858 -912 0
-972 969 860 913 0
-972 969 -860 -913 0
-972 -969 860 -913 0
972 969 860 -913 0
-972 -969 -860 913 0
972 969 -860 913 0
972 -969 860 913 0
972 -969 -860 -913 0
-971 969 860 0
-971 969 913 0
-971 860 913 0
971 -969 -860 0
971 -969 -913 0
971 -860 -913 0
-974 971 862 914 0
-974 971 -862 -914 0
-974 -971 862 -914 0
974 971 862 -914 0
-974 -971 -862 914 0
974 971 -862 914 0
974 -971 862 914 0
974 -971 -862 -914 0
-973 971 862 0
-973 971 914 0
-973 862 914 0
973 -971 -862 0
973 -971 -914 0
973 -862 -914 0
-976 973 864 915 0
-976 973 -864 -915 0
-976 -973 864 -915 0
976 973 864 -915 0
-976 -973 -864 915 0
976 973 -864 915 0
976 -973 864 915 0
976 -973 -864 -915 0
-975 973 864 0
-975 973 915 0
-975 864 915 0
975 -973 -864 0
975 -973 -915 0
975 -864 -915 0
-978 975 866 916 0
-978 975 -866 -916 0
-978 -975 866 -916 0
978 975 866 -916 0
-978 -975 -866 916 0
978 975 -866 916 0
978 -975 866 916 0
978 -975 -866 -916 0
-977 975 866 0
-977 975 916 0
-977 866 916 0
977 -975 -866 0
977 -975 -916 0
977 -866 -916 0
-980 977 868 917 0
-980 977 -868 -917 0
-980 -977 868 -917 0
980 977 868 -917 0
-980 -977 -868 917 0
980 977 -868 917 0
980 -977 868 917 0
980 -977 -868 -917 0
-979 977 868 0
-979 977 917 0
-979 868 917 0
979 -977 -868 0
979 -977 -917 0
979 -868 -917 0
-982 979 870 918 0
-982 979 -870 -918 0
-982 -979 870 -918 0
982 979 870 -918 0
-982 -979 -870 918 0
982 979 -870 918 0
982 -979 870 918 0
982 -979 -870 -918 0
-981 979 870 0
-981 979 918 0
-981 870 918 0
981 -979 -870 0
981 -979 -918 0
981 -870 -918 0
-984 981 872 919 0
-984 981 -872 -919 0
-984 -981 872 -919 0
984 981 872 -919 0
-984 -981 -872 919 0
984 981 -872 919 0
984 -981 872 919 0
984 -981 -872 -919 0
-983 981 872 0
-983 981 919 0
-983 872 919 0
983 -981 -872 0
983 -981 -919 0
983 -872 -919 0
-986 983 874 920 0
-986 983 -874 -920 0
-986 -983 874 -920 0
986 983 874 -920 0
-986 -983 -874 920 0
986 983 -874 920 0
986 -983 874 920 0
986 -983 -874 -920 0
-985 983 874 0
-985 983 920 0
-985 874 920 0
985 -983 -874 0
985 -983 -920 0
985 -874 -920 0
-988 985 876 921 0
-988 985 -876 -921 0
-988 -985 876 -921 0
988 985 876 -921 0
-988 -985 -876 921 0
988 985 -876 921 0
988 -985 876 921 0
988 -985 -876 -921 0
-987 985 876 0
-987 985 921 0
-987 876 921 0
987 -985 -876 0
987 -985 -921 0
987 -876 -921 0
-990 987 878 922 0
-990 987 -878 -922 0
-990 -987 878 -922 0
990 987 878 -922 0
-990 -987 -878 922 0
990 987 -878 922 0
990 -987 878 922 0
990 -987 -878 -922 0
-989 987 878 0
-989 987 922 0
-989 878 922 0
989 -987 -878 0
989 -987 -922 0
989 -878 -922 0
-992 989 880 923 0
-992 989 -880 -923 0
-992 -989 880 -923 0
992 989 880 -923 0
-992 -989 -880 923 0
992 989 -880 923 0
992 -989 880 923 0
992 -989 -880 -923 0
-991 989 880 0
-991 989 923 0
-991 880 923 0
991 -989 -880 0
991 -989 -923 0
991 -880 -923 0
-994 991 882 924 0
-994 991 -882 -924 0
-994 -991 882 -924 0
994 991 882 -924 0
-994 -991 -882 924 0
994 991 -882 924 0
994 -991 882 924 0
994 -991 -882 -924 0
-993 991 882 0
-993 991 924 0
-993 882 924 0
993 -991 -882 0
993 -991 -924 0
993 -882 -924 0
-996 993 884 925 0
-996 993 -884 -925 0
-996 -993 884 -925 0
996 993 884 -925 0
-996 -993 -884 925 0
996 993 -884 925 0
996 -993 884 925 0
996 -993 -884 -925 0
-995 993 884 0
-995 993 925 0
-995 884 925 0
995 -993 -884 0
995 -993 -925 0
995 -884 -925 0
-998 995 886 926 0
-998 995 -886 -926 0
-998 -995 886 -926 0
998 995 886 -926 0
-998 -995 -886 926 0
998 995 -886 926 0
998 -995 886 926 0
998 -995 -886 -926 0
-997 995 886 0
-997 995 926 0
-997 886 926 0
997 -995 -886 0
997 -995 -926 0
997 -886 -926 0
-1000 997 888 927 0
-1000 997 -888 -927 0
-1000 -997 888 -927 0
1000 997 888 -927 0
-1000 -997 -888 927 0
1000 997 -888 927 0
1000 -997 888 927 0
1000 -997 -888 -927 0
-999 997 888 0
-999 997 927 0
-999 888 927 0
999 -997 -888 0
999 -997 -927 0
999 -888 -927 0
-1002 999 890 928 0
-1002 999 -890 -928 0
-1002 -999 890 -928 0
1002 999 890 -928 0
-1002 -999 -890 928 0
1002 999 -890 928 0
1002 -999 890 928 0
1002 -999 -890 -928 0
-1001 999 890 0
-1001 999 928 0
-1001 890 928 0
1001 -999 -890 0
1001 -999 -928 0
1001 -890 -928 0
-1004 1001 892 929 0
-1004 1001 -892 -929 0
-1004 -1001 892 -929 0
1004 1001 892 -929 0
-1004 -1001 -892 929 0
1004 1001 -892 929 0
1004 -1001 892 929 0
1004 -1001 -892 -929 0
-1003 1001 892 0
-1003 1001 929 0
-1003 892 929 0
1003 -1001 -892 0
1003 -1001 -929 0
1003 -892 -929 0
-1006 1003 894 930 0
-1006 1003 -894 -930 0
-1006 -1003 894 -930 0
1006 1003 894 -930 0
-1006 -1003 -894 930 0
1006 1003 -894 930 0
1006 -1003 894 930 0
1006 -1003 -894 -930 0
-1005 1003 894 0
-1005 1003 930 0
-1005 894 930 0
1005 -1003 -894 0
1005 -1003 -930 0
1005 -894 -930 0
-1008 1005 896 931 0
-1008 1005 -896 -931 0
-1008 -1005 896 -931 0
1008 1005 896 -931 0
-1008 -1005 -896 931 0
1008 1005 -896 931 0
1008 -1005 896 931 0
1008 -1005 -896 -931 0
-1007 1005 896 0
-1007 1005 931 0
-1007 896 931 0
1007 -1005 -896 0
1007 -1005 -931 0
1007 -896 -931 0
-1010 1007 898 932 0
-1010 1007 -898 -932 0
-1010 -1007 898 -932 0
1010 1007 898 -932 0
-1010 -1007 -898 932 0
1010 1007 -898 932 0
1010 -1007 898 932 0
1010 -1007 -898 -932 0
-1009 1007 898 0
-1009 1007 932 0
-1009 898 932 0
1009 -1007 -898 0
1009 -1007 -932 0
1009 -898 -932 0
-1012 1009 900 933 0
-1012 1009 -900 -933 0
-1012 -1009 900 -933 0
1012 1009 900 -933 0
-1012 -1009 -900 933 0
1012 1009 -900 933 0
1012 -1009 900 933 0
1012 -1009 -900 -933 0
-1011 1009 900 0
-1011 1009 933 0
-1011 900 933 0
1011 -1009 -900 0
1011 -1009 -933 0
1011 -900 -933 0
-1014 1011 902 934 0
-1014 1011 -902 -934 0
-1014 -1011 902 -934 0
1014 1011 902 -934 0
-1014 -1011 -902 934 0
1014 1011 -902 934 0
1014 -1011 902 934 0
1014 -1011 -902 -934 0
-1013 1011 902 0
-1013 1011 934 0
-1013 902 934 0
1013 -1011 -902 0
1013 -1011 -934 0
1013 -902 -934 0
-1016 1013 904 935 0
-1016 1013 -904 -935 0
-1016 -1013 904 -935 0
1016 1013 904 -935 0
-1016 -1013 -904 935 0
1016 1013 -904 935 0
1016 -1013 904 935 0
1016 -1013 -904 -935 0
-1015 1013 904 0
-1015 1013 935 0
-1015 904 935 0
1015 -1013 -904 0
1015 -1013 -935 0
1015 -904 -935 0
-1018 1015 903 936 0
-1018 1015 -903 -936 0
-1018 -1015 903 -936 0
1018 1015 903 -936 0
-1018 -1015 -903 936 0
1018 1015 -903 936 0
1018 -1015 903 936 0
1018 -1015 -903 -936 0
-1017 1015 903 0
-1017 1015 936 0
-1017 903 936 0
1017 -1015 -903 0
1017 -1015 -936 0
1017 -903 -936 0
-1019 1 0
-1019 11 0
1019 -1 -11 0
-1020 2 0
-1020 11 0
1020 -2 -11 0
-1021 3 0
-1021 11 0
1021 -3 -11 0
-1022 4 0
-1022 11 0
1022 -4 -11 0
-1023 5 0
-1023 11 0
1023 -5 -11 0
-1024 6 0
-1024 11 0
1024 -6 -11 0
-1025 7 0
-1025 11 0
1025 -7 -11 0
-1026 8 0
-1026 11 0
1026 -8 -11 0
-1027 9 0
-1027 11 0
1027 -9 -11 0
-1028 10 0
-1028 11 0
1028 -10 -11 0
-1029 11 0
1029 -11 0
-1030 12 0
-1030 11 0
1030 -12 -11 0
-1031 13 0
-1031 11 0
1031 -13 -11 0
-1032 14 0
-1032 11 0
1032 -14 -11 0
-1033 15 0
-1033 11 0
1033 -15 -11 0
-1034 16 0
-1034 11 0
1034 -16 -11 0
-1035 17 0
-1035 11 0
1035 -17 -11 0
-1036 18 0
-1036 11 0
1036 -18 -11 0
-1037 19 0
-1037 11 0
1037 -19 -11 0
-1038 20 0
-1038 11 0
1038 -20 -11 0
-1039 21 0
-1039 11 0
1039 -21 -11 0
-1040 22 0
-1040 11 0
1040 -22 -11 0
-1041 23 0
-1041 11 0
1041 -23 -11 0
-1042 24 0
-1042 11 0
1042 -24 -11 0
-1043 25 0
-1043 11 0
1043 -25 -11 0
-1044 26 0
-1044 11 0
1044 -26 -11 0
-1045 27 0
-1045 11 0
1045 -27 -11 0
-1046 28 0
-1046 11 0
1046 -28 -11 0
-1047 29 0
-1047 11 0
1047 -29 -11 0
-1048 30 0
-1048 11 0
1048 -30 -11 0
-1049 31 0
-1049 11 0
1049 -31 -11 0
-1050 32 0
-1050 11 0
1050 -32 -11 0
-938 1052 0
938 -1052 0
-1051 0
940 1051 -1054 0
-940 -1051 -1054 0
-940 1051 1054 0
940 -1051 1054 0
-1053 1051 0
-1053 940 0
1053 -1051 -940 0
942 1053 -1056 0
-942 -1053 -1056 0
-942 1053 1056 0
942 -1053 1056 0
-1055 1053 0
-1055 942 0
1055 -1053 -942 0
944 1055 -1058 0
-944 -1055 -1058 0
-944 1055 1058 0
944 -1055 1058 0
-1057 1055 0
-1057 944 0
1057 -1055 -944 0
946 1057 -1060 0
-946 -1057 -1060 0
-946 1057 1060 0
946 -1057 1060 0
-1059 1057 0
-1059 946 0
1059 -1057 -946 0
948 1059 -1062 0
-948 -1059 -1062 0
-948 1059 1062 0
948 -1059 1062 0
-1061 1059 0
-1061 948 0
1061 -1059 -948 0
950 1061 -1064 0
-950 -1061 -1064 0
-950 1061 1064 0
950 -1061 1064 0
-1063 1061 0
-1063 950 0
1063 -1061 -950 0
952 1063 -1066 0
-952 -1063 -1066 0
-952 1063 1066 0
952 -1063 1066 0
-1065 1063 0
-1065 952 0
1065 -1063 -952 0
954 1065 -1068 0
-954 -1065 -1068 0
-954 1065 1068 0
954 -1065 1068 0
-1067 1065 0
-1067 954 0
1067 -1065 -954 0
956 1067 -1070 0
-956 -1067 -1070 0
-956 1067 1070 0
956 -1067 1070 0
-1069 1067 0
-1069 956 0
1069 -1067 -956 0
-1072 1069 958 1019 0
-1072 1069 -958 -1019 0
-1072 -1069 958 -1019 0
1072 1069 958 -1019 0
-1072 -1069 -958 1019 0
1072 1069 -958 1019 0
1072 -1069 958 1019 0
1072 -1069 -958 -1019 0
-1071 1069 958 0
-1071 1069 1019 0
-1071 958 1019 0
1071 -1069 -958 0
1071 -1069 -1019 0
1071 -958 -1019 0
-1074 1071 960 1020 0
-1074 1071 -960 -1020 0
-1074 -1071 960 -1020 0
1074 1071 960 -1020 0
-1074 -1071 -960 1020 0
1074 1071 -960 1020 0
1074 -1071 960 1020 0
1074 -1071 -960 -1020 0
-1073 1071 960 0
-1073 1071 1020 0
-1073 960 1020 0
1073 -1071 -960 0
1073 -1071 -1020 0
1073 -960 -1020 0
-1076 1073 962 1021 0
-1076 1073 -962 -1021 0
-1076 -1073 962 -1021 0
1076 1073 962 -1021 0
-1076 -1073 -962 1021 0
1076 1073 -962 1021 0
1076 -1073 962 1021 0
1076 -1073 -962 -1021 0
-1075 1073 962 0
-1075 1073 1021 0
-1075 962 1021 0
1075 -1073 -962 0
1075 -1073 -1021 0
1075 -962 -1021 0
-1078 1075 964 1022 0
-1078 1075 -964 -1022 0
-1078 -1075 964 -1022 0
1078 1075 964 -1022 0
-1078 -1075 -964 1022 0
1078 1075 -964 1022 0
1078 -1075 964 1022 0
1078 -1075 -964 -1022 0
-1077 1075 964 0
-1077 1075 1022 0
-1077 964 1022 0
1077 -1075 -964 0
1077 -1075 -1022 0
1077 -964 -1022 0
-1080 1077 966 1023 0
-1080 1077 -966 -1023 0
-1080 -1077 966 -1023 0
1080 1077 966 -1023 0
-1080 -1077 -966 1023 0
1080 1077 -966 1023 0
1080 -1077 966 1023 0
1080 -1077 -966 -1023 0
-1079 1077 966 0
-1079 1077 1023 0
-1079 966 1023 0
1079 -1077 -966 0
1079 -1077 -1023 0
1079 -966 -1023 0
-1082 1079 968 1024 0
-1082 1079 -968 -1024 0
-1082 -1079 968 -1024 0
1082 1079 968 -1024 0
-1082 -1079 -968 1024 0
1082 1079 -968 1024 0
1082 -1079 968 1024 0
1082 -1079 -968 -1024 0
-1081 1079 968 0
-1081 1079 1024 0
-1081 968 1024 0
1081 -1079 -968 0
1081 -1079 -1024 0
1081 -968 -1024 0
-1084 1081 970 1025 0
-1084 1081 -970 -1025 0
-1084 -1081 970 -1025 0
1084 1081 970 -1025 0
-1084 -1081 -970 1025 0
1084 1081 -970 1025 0
1084 -1081 970 1025 0
1084 -1081 -970 -1025 0
-1083 1081 970 0
-1083 1081 1025 0
-1083 970 1025 0
1083 -1081 -970 0
1083 -1081 -1025 0
1083 -970 -1025 0
-1086 1083 972 1026 0
-1086 1083 -972 -1026 0
-1086 -1083 972 -1026 0
1086 1083 972 -1026 0
-1086 -1083 -972 1026 0
1086 1083 -972 1026 0
1086 -1083 972 1026 0
1086 -1083 -972 -1026 0
-1085 1083 972 0
-1085 1083 1026 0
-1085 972 1026 0
1085 -1083 -972 0
1085 -1083 -1026 0
1085 -972 -1026 0
-1088 1085 974 1027 0
-1088 1085 -974 -1027 0
-1088 -1085 974 -1027 0
1088 1085 974 -1027 0
-1088 -1085 -974 1027 0
1088 1085 -974 1027 0
1088 -1085 974 1027 0
1088 -1085 -974 -1027 0
-1087 1085 974 0
-1087 1085 1027 0
-1087 974 1027 0
1087 -1085 -974 0
1087 -1085 -1027 0
1087 -974 -1027 0
-1090 1087 976 1028 0
-1090 1087 -976 -1028 0
-1090 -1087 976 -1028 0
1090 1087 976 -1028 0
-1090 -1087 -976 1028 0
1090 1087 -976 1028 0
1090 -1087 976 1028 0
1090 -1087 -976 -1028 0
-1089 1087 976 0
-1089 1087 1028 0
-1089 976 1028 0
1089 -1087 -976 0
1089 -1087 -1028 0
1089 -976 -1028 0
-1092 1089 978 1029 0
-1092 1089 -978 -1029 0
-1092 -1089 978 -1029 0
1092 1089 978 -1029 0
-1092 -1089 -978 1029 0
1092 1089 -978 1029 0
1092 -1089 978 1029 0
1092 -1089 -978 -1029 0
-1091 1089 978 0
-1091 1089 1029 0
-1091 978 1029 0
1091 -1089 -978 0
1091 -1089 -1029 0
1091 -978 -1029 0
-1094 1091 980 1030 0
-1094 1091 -980 -1030 0
-1094 -1091 980 -1030 0
1094 1091 980 -1030 0
-1094 -1091 -980 1030 0
1094 1091 -980 1030 0
1094 -1091 980 1030 0
1094 -1091 -980 -1030 0
-1093 1091 980 0
-1093 1091 1030 0
-1093 980 1030 0
1093 -1091 -980 0
1093 -1091 -1030 0
1093 -980 -1030 0
-1096 1093 982 1031 0
-1096 1093 -982 -1031 0
-1096 -1093 982 -1031 0
1096 1093 982 -1031 0
-1096 -1093 -982 1031 0
1096 1093 -982 1031 0
1096 -1093 982 1031 0
1096 -1093 -982 -1031 0
-1095 1093 982 0
-1095 1093 1031 0
-1095 982 1031 0
1095 -1093 -982 0
1095 -1093 -1031 0
1095 -982 -1031 0
-1098 1095 984 1032 0
-1098 1095 -984 -1032 0
-1098 -1095 984 -1032 0
1098 1095 984 -1032 0
-1098 -1095 -984 1032 0
1098 1095 -984 1032 0
1098 -1095 984 1032 0
1098 -1095 -984 -1032 0
-1097 1095 984 0
-1097 1095 1032 0
-1097 984 1032 0
1097 -1095 -984 0
1097 -1095 -1032 0
1097 -984 -1032 0
-1100 1097 986 1033 0
-1100 1097 -986 -1033 0
-1100 -1097 986 -1033 0
1100 1097 986 -1033 0
-1100 -1097 -986 1033 0
1100 1097 -986 1033 0
1100 -1097 986 1033 0
1100 -1097 -986 -1033 0
-1099 1097 986 0
-1099 1097 1033 0
-1099 986 1033 0
1099 -1097 -986 0
1099 -1097 -1033 0
1099 -986 -1033 0
-1102 1099 988 1034 0
-1102 1099 -988 -1034 0
-1102 -1099 988 -1034 0
1102 1099 988 -1034 0
-1102 -1099 -988 1034 0
1102 1099 -988 1034 0
1102 -1099 988 1034 0
1102 -1099 -988 -1034 0
-1101 1099 988 0
-1101 1099 1034 0
-1101 988 1034 0
1101 -1099 -988 0
1101 -1099 -1034 0
1101 -988 -1034 0
-1104 1101 990 1035 0
-1104 1101 -990 -1035 0
-1104 -1101 990 -1035 0
1104 1101 990 -1035 0
-1104 -1101 -990 1035 0
1104 1101 -990 1035 0
1104 -1101 990 1035 0
1104 -1101 -990 -1035 0
-1103 1101 990 0
-1103 1101 1035 0
-1103 990 1035 0
1103 -1101 -990 0
1103 -1101 -1035 0
1103 -990 -1035 0
-1106 1103 992 1036 0
-1106 1103 -992 -1036 0
-1106 -1103 992 -1036 0
1106 1103 992 -1036 0
-1106 -1103 -992 1036 0
1106 1103 -992 1036 0
1106 -1103 992 1036 0
1106 -1103 -992 -1036 0
-1105 1103 992 0
-1105 1103 1036 0
-1105 992 1036 0
1105 -1103 -992 0
1105 -1103 -1036 0
1105 -992 -1036 0
-1108 1105 994 1037 0
-1108 1105 -994 -1037 0
-1108 -1105 994 -1037 0
1108 1105 994 -1037 0
-1108 -1105 -994 1037 0
1108 1105 -994 1037 0
1108 -1105 994 1037 0
1108 -1105 -994 -1037 0
-1107 1105 994 0
-1107 1105 1037 0
-1107 994 1037 0
1107 -1105 -994 0
1107 -1105 -1037 0
1107 -994 -1037 0
-1110 1107 996 1038 0
-1110 1107 -996 -1038 0
-1110 -1107 996 -1038 0
1110 1107 996 -1038 0
-1110 -1107 -996 1038 0
1110 1107 -996 1038 0
1110 -1107 996 1038 0
1110 -1107 -996 -1038 0
-1109 1107 996 0
-1109 1107 1038 0
-1109 996 1038 0
1109 -1107 -996 0
1109 -1107 -1038 0
1109 -996 -1038 0
-1112 1109 998 1039 0
-1112 1109 -998 -1039 0
-1112 -1109 998 -1039 0
1112 1109 998 -1039 0
-1112 -1109 -998 1039 0
1112 1109 -998 1039 0
1112 -1109 998 1039 0
1112 -1109 -998 -1039 0
-1111 1109 998 0
-1111 1109 1039 0
-1111 998 1039 0
1111 -1109 -998 0
1111 -1109 -1039 0
1111 -998 -1039 0
-1114 1111 1000 1040 0
-1114 1111 -1000 -1040 0
-1114 -1111 1000 -1040 0
1114 1111 1000 -1040 0
-1114 -1111 -1000 1040 0
1114 1111 -1000 1040 0
1114 -1111 1000 1040 0
1114 -1111 -1000 -1040 0
-1113 1111 1000 0
-1113 1111 1040 0
-1113 1000 1040 0
1113 -1111 -1000 0
1113 -1111 -1040 0
1113 -1000 -1040 0
-1116 1113 1002 1041 0
-1116 1113 -1002 -1041 0
-1116 -1113 1002 -1041 0
1116 1113 1002 -1041 0
-1116 -1113 -1002 1041 0
1116 1113 -1002 1041 0
1116 -1113 1002 1041 0
1116 -1113 -1002 -1041 0
-1115 1113 1002 0
-1115 1113 1041 0
-1115 1002 1041 0
1115 -1113 -1002 0
1115 -1113 -1041 0
1115 -1002 -1041 0
-1118 1115 1004 1042 0
-1118 1115 -1004 -1042 0
-1118 -1115 1004 -1042 0
1118 1115 1004 -1042 0
-1118 -1115 -1004 1042 0
1118 1115 -1004 1042 0
1118 -1115 1004 1042 0
1118 -1115 -1004 -1042 0
-1117 1115 1004 0
-1117 1115 1042 0
-1117 1004 1042 0
1117 -1115 -1004 0
1117 -1115 -1042 0
1117 -1004 -1042 0
-1120 1117 1006 1043 0
-1120 1117 -1006 -1043 0
-1120 -1117 1006 -1043 0
1120 1117 1006 -1043 0
-1120 -1117 -1006 1043 0
1120 1117 -1006 1043 0
1120 -1117 1006 1043 0
1120 -1117 -1006 -1043 0
-1119 1117 1006 0
-1119 1117 1043 0
-1119 1006 1043 0
1119 -1117 -1006 0
1119 -1117 -1043 0
1119 -1006 -1043 0
-1122 1119 1008 1044 0
-1122 1119 -1008 -1044 0
-1122 -1119 1008 -1044 0
1122 1119 1008 -1044 0
-1122 -1119 -1008 1044 0
1122 1119 -1008 1044 0
1122 -1119 1008 1044 0
1122 -1119 -1008 -1044 0
-1121 1119 1008 0
-1121 1119 1044 0
-1121 1008 1044 0
1121 -1119 -1008 0
1121 -1119 -1044 0
1121 -1008 -1044 0
-1124 1121 1010 1045 0
-1124 1121 -1010 -1045 0
-1124 -1121 1010 -1045 0
1124 1121 1010 -1045 0
-1124 -1121 -1010 1045 0
1124 1121 -1010 1045 0
1124 -1121 1010 1045 0
1124 -1121 -1010 -1045 0
-1123 1121 1010 0
-1123 1121 1045 0
-1123 1010 1045 0
1123 -1121 -1010 0
1123 -1121 -1045 0
1123 -1010 -1045 0
-1126 1123 1012 1046 0
-1126 1123 -1012 -1046 0
-1126 -1123 1012 -1046 0
1126 1123 1012 -1046 0
-1126 -1123 -1012 1046 0
1126 1123 -1012 1046 0
1126 -1123 1012 1046 0
1126 -1123 -1012 -1046 0
-1125 1123 1012 0
-1125 1123 1046 0
-1125 1012 1046 0
1125 -1123 -1012 0
1125 -1123 -1046 0
1125 -1012 -1046 0
-1128 1125 1014 1047 0
-1128 1125 -1014 -1047 0
-1128 -1125 1014 -1047 0
1128 1125 1014 -1047 0
-1128 -1125 -1014 1047 0
1128 1125 -1014 1047 0
1128 -1125 1014 1047 0
1128 -1125 -1014 -1047 0
-1127 1125 1014 0
-1127 1125 1047 0
-1127 1014 1047 0
1127 -1125 -1014 0
1127 -1125 -1047 0
1127 -1014 -1047 0
-1130 1127 1016 1048 0
-1130 1127 -1016 -1048 0
-1130 -1127 1016 -1048 0
1130 1127 1016 -1048 0
-1130 -1127 -1016 1048 0
1130 1127 -1016 1048 0
1130 -1127 1016 1048 0
1130 -1127 -1016 -1048 0
-1129 1127 1016 0
-1129 1127 1048 0
-1129 1016 1048 0
1129 -1127 -1016 0
1129 -1127 -1048 0
1129 -1016 -1048 0
-1132 1129 1018 1049 0
-1132 1129 -1018 -1049 0
-1132 -1129 1018 -1049 0
1132 1129 1018 -1049 0
-1132 -1129 -1018 1049 0
1132 1129 -1018 1049 0
1132 -1129 1018 1049 0
1132 -1129 -1018 -1049 0
-1131 1129 1018 0
-1131 1129 1049 0
-1131 1018 1049 0
1131 -1129 -1018 0
1131 -1129 -1049 0
1131 -1018 -1049 0
-1134 1131 1017 1050 0
-1134 1131 -1017 -1050 0
-1134 -1131 1017 -1050 0
1134 1131 1017 -1050 0
-1134 -1131 -1017 1050 0
1134 1131 -1017 1050 0
1134 -1131 1017 1050 0
1134 -1131 -1017 -1050 0
-1133 1131 1017 0
-1133 1131 1050 0
-1133 1017 1050 0
1133 -1131 -1017 0
1133 -1131 -1050 0
1133 -1017 -1050 0
-1135 1 0
-1135 12 0
1135 -1 -12 0
-1136 2 0
-1136 12 0
1136 -2 -12 0
-1137 3 0
-1137 12 0
1137 -3 -12 0
-1138 4 0
-1138 12 0
1138 -4 -12 0
-1139 5 0
-1139 12 0
1139 -5 -12 0
-1140 6 0
-1140 12 0
1140 -6 -12 0
-1141 7 0
-1141 12 0
1141 -7 -12 0
-1142 8 0
-1142 12 0
1142 -8 -12 0
-1143 9 0
-1143 12 0
1143 -9 -12 0
-1144 10 0
-1144 12 0
1144 -10 -12 0
-1145 11 0
-1145 12 0
1145 -11 -12 0
-1146 12 0
1146 -12 0
-1147 13 0
-1147 12 0
1147 -13 -12 0
-1148 14 0
-1148 12 0
1148 -14 -12 0
-1149 15 0
-1149 12 0
1149 -15 -12 0
-1150 16 0
-1150 12 0
1150 -16 -12 0
-1151 17 0
-1151 12 0
1151 -17 -12 0
-1152 18 0
-1152 12 0
1152 -18 -12 0
-1153 19 0
-1153 12 0
1153 -19 -12 0
-1154 20 0
-1154 12 0
1154 -20 -12 0
-1155 21 0
-1155 12 0
1155 -21 -12 0
-1156 22 0
-1156 12 0
1156 -22 -12 0
-1157 23 0
-1157 12 0
1157 -23 -12 0
-1158 24 0
-1158 12 0
1158 -24 -12 0
-1159 25 0
-1159 12 0
1159 -25 -12 0
-1160 26 0
-1160 12 0
1160 -26 -12 0
-1161 27 0
-1161 12 0
1161 -27 -12 0
-1162 28 0
-1162 12 0
1162 -28 -12 0
-1163 29 0
-1163 12 0
1163 -29 -12 0
-1164 30 0
-1164 12 0
1164 -30 -12 0
-1165 31 0
-1165 12 0
1165 -31 -12 0
-1166 32 0
-1166 12 0
1166 -32 -12 0
-1052 1168 0
1052 -1168 0
-1167 0
1054 1167 -1170 0
-1054 -1167 -1170 0
-1054 1167 1170 0
1054 -1167 1170 0
-1169 1167 0
-1169 1054 0
1169 -1167 -1054 0
1056 1169 -1172 0
-1056 -1169 -1172 0
-1056 1169 1172 0
1056 -1169 1172 0
-1171 1169 0
-1171 1056 0
1171 -1169 -1056 0
1058 1171 -1174 0
-1058 -1171 -1174 0
-1058 1171 1174 0
1058 -1171 1174 0
-1173 1171 0
-1173 1058 0
1173 -1171 -1058 0
1060 1173 -1176 0
-1060 -1173 -1176 0
-1060 1173 1176 0
1060 -1173 1176 0
-1175 1173 0
-1175 1060 0
1175 -1173 -1060 0
1062 1175 -1178 0
-1062 -1175 -1178 0
-1062 1175 1178 0
1062 -1175 1178 0
-1177 1175 0
-1177 1062 0
1177 -1175 -1062 0
1064 1177 -1180 0
-1064 -1177 -1180 0
-1064 1177 1180 0
1064 -1177 1180 0
-1179 1177 0
-1179 1064 0
1179 -1177 -1064 0
1066 1179 -1182 0
-1066 -1179 -1182 0
-1066 1179 1182 0
1066 -1179 1182 0
-1181 1179 0
-1181 1066 0
1181 -1179 -1066 0
1068 1181 -1184 0
-1068 -1181 -1184 0
-1068 1181 1184 0
1068 -1181 1184 0
-1183 1181 0
-1183 1068 0
1183 -1181 -1068 0
1070 1183 -1186 0
-1070 -1183 -1186 0
-1070 1183 1186 0
1070 -1183 1186 0
-1185 1183 0
-1185 1070 0
1185 -1183 -1070 0
1072 1185 -1188 0
-1072 -1185 -1188 0
-1072 1185 1188 0
1072 -1185 1188 0
-1187 1185 0
-1187 1072 0
1187 -1185 -1072 0
-1190 1187 1074 1135 0
-1190 1187 -1074 -1135 0
-1190 -1187 1074 -1135 0
1190 1187 1074 -1135 0
-1190 -1187 -1074 1135 0
1190 1187 -1074 1135 0
1190 -1187 1074 1135 0
1190 -1187 -1074 -1135 0
-1189 1187 1074 0
-1189 1187 1135 0
-1189 1074 1135 0
1189 -1187 -1074 0
1189 -1187 -1135 0
1189 -1074 -1135 0
-1192 1189 1076 1136 0
-1192 1189 -1076 -1136 0
-1192 -1189 1076 -1136 0
1192 1189 1076 -1136 0
-1192 -1189 -1076 1136 0
1192 1189 -1076 1136 0
1192 -1189 1076 1136 0
1192 -1189 -1076 -1136 0
-1191 1189 1076 0
-1191 1189 1136 0
-1191 1076 1136 0
1191 -1189 -1076 0
1191 -1189 -1136 0
1191 -1076 -1136 0
-1194 1191 1078 1137 0
-1194 1191 -1078 -1137 0
-1194 -1191 1078 -1137 0
1194 1191 1078 -1137 0
-1194 -1191 -1078 1137 0
1194 1191 -1078 1137 0
1194 -1191 1078 1137 0
1194 -1191 -1078 -1137 0
-1193 1191 1078 0
-1193 1191 1137 0
-1193 1078 1137 0
1193 -1191 -1078 0
1193 -1191 -1137 0
1193 -1078 -1137 0
-1196 1193 1080 1138 0
-1196 1193 -1080 -1138 0
-1196 -1193 1080 -1138 0
1196 1193 1080 -1138 0
-1196 -1193 -1080 1138 0
1196 1193 -1080 1138 0
1196 -1193 1080 1138 0
1196 -1193 -1080 -1138 0
-1195 1193 1080 0
-1195 1193 1138 0
-1195 1080 1138 0
1195 -1193 -1080 0
1195 -1193 -1138 0
1195 -1080 -1138 0
-1198 1195 1082 1139 0
-1198 1195 -1082 -1139 0
-1198 -1195 1082 -1139 0
1198 1195 1082 -1139 0
-1198 -1195 -1082 1139 0
1198 1195 -1082 1139 0
1198 -1195 1082 1139 0
1198 -1195 -1082 -1139 0
-1197 1195 1082 0
-1197 1195 1139 0
-1197 1082 1139 0
1197 -1195 -1082 0
1197 -1195 -1139 0
1197 -1082 -1139 0
-1200 1197 1084 1140 0
-1200 1197 -1084 -1140 0
-1200 -1197 1084 -1140 0
1200 1197 1084 -1140 0
-1200 -1197 -1084 1140 0
1200 1197 -1084 1140 0
1200 -1197 1084 1140 0
1200 -1197 -1084 -1140 0
-1199 1197 1084 0
-1199 1197 1140 0
-1199 1084 1140 0
1199 -1197 -1084 0
1199 -1197 -1140 0
1199 -1084 -1140 0
-1202 1199 1086 1141 0
-1202 1199 -1086 -1141 0
-1202 -1199 1086 -1141 0
1202 1199 1086 -1141 0
-1202 -1199 -1086 1141 0
1202 1199 -1086 1141 0
1202 -1199 1086 1141 0
1202 -1199 -1086 -1141 0
-1201 1199 1086 0
-1201 1199 1141 0
-1201 1086 1141 0
1201 -1199 -1086 0
1201 -1199 -1141 0
1201 -1086 -1141 0
-1204 1201 1088 1142 0
-1204 1201 -1088 -1142 0
-1204 -1201 1088 -1142 0
1204 1201 1088 -1142 0
-1204 -1201 -1088 1142 0
1204 1201 -1088 1142 0
1204 -1201 1088 1142 0
1204 -1201 -1088 -1142 0
-1203 1201 1088 0
-1203 1201 1142 0
-1203 1088 1142 0
1203 -1201 -1088 0
1203 -1201 -1142 0
1203 -1088 -1142 0
-1206 1203 1090 1143 0
-1206 1203 -1090 -1143 0
-1206 -1203 1090 -1143 0
1206 1203 1090 -1143 0
-1206 -1203 -1090 1143 0
1206 1203 -1090 1143 0
1206 -1203 1090 1143 0
1206 -1203 -1090 -1143 0
-1205 1203 1090 0
-1205 1203 1143 0
-1205 1090 1143 0
1205 -1203 -1090 0
1205 -1203 -1143 0
1205 -1090 -1143 0
-1208 1205 1092 1144 0
-1208 1205 -1092 -1144 0
-1208 -1205 1092 -1144 0
1208 1205 1092 -1144 0
-1208 -1205 -1092 1144 0
1208 1205 -1092 1144 0
1208 -1205 1092 1144 0
1208 -1205 -1092 -1144 0
-1207 1205 1092 0
-1207 1205 1144 0
-1207 1092 1144 0
1207 -1205 -1092 0
1207 -1205 -1144 0
1207 -1092 -1144 0
-1210 1207 1094 1145 0
-1210 1207 -1094 -1145 0
-1210 -1207 1094 -1145 0
1210 1207 1094 -1145 0
-1210 -1207 -1094 1145 0
1210 1207 -1094 1145 0
1210 -1207 1094 1145 0
1210 -1207 -1094 -1145 0
-1209 1207 1094 0
-1209 1207 1145 0
-1209 1094 1145 0
1209 -1207 -1094 0
1209 -1207 -1145 0
1209 -1094 -1145 0
-1212 1209 1096 1146 0
-1212 1209 -1096 -1146 0
-1212 -1209 1096 -1146 0
1212 1209 1096 -1146 0
-1212 -1209 -1096 1146 0
1212 1209 -1096 1146 0
1212 -1209 1096 1146 0
1212 -1209 -1096 -1146 0
-1211 1209 1096 0
-1211 1209 1146 0
-1211 1096 1146 0
1211 -1209 -1096 0
1211 -1209 -1146 0
1211 -1096 -1146 0
-1214 1211 1098 1147 0
-1214 1211 -1098 -1147 0
-1214 -1211 1098 -1147 0
1214 1211 1098 -1147 0
-1214 -1211 -1098 1147 0
1214 1211 -1098 1147 0
1214 -1211 1098 1147 0
1214 -1211 -1098 -1147 0
-1213 1211 1098 0
-1213 1211 1147 0
-1213 1098 1147 0
1213 -1211 -1098 0
1213 -1211 -1147 0
1213 -1098 -1147 0
-1216 1213 1100 1148 0
-1216 1213 -1100 -1148 0
-1216 -1213 1100 -1148 0
1216 1213 1100 -1148 0
-1216 -1213 -1100 1148 0
1216 1213 -1100 1148 0
1216 -1213 1100 1148 0
1216 -1213 -1100 -1148 0
-1215 1213 1100 0
-1215 1213 1148 0
-1215 1100 1148 0
1215 -1213 -1100 0
1215 -1213 -1148 0
1215 -1100 -1148 0
-1218 1215 1102 1149 0
-1218 1215 -1102 -1149 0
-1218 -1215 1102 -1149 0
1218 1215 1102 -1149 0
-1218 -1215 -1102 1149 0
1218 1215 -1102 1149 0
1218 -1215 1102 1149 0
1218 -1215 -1102 -1149 0
-1217 1215 1102 0
-1217 1215 1149 0
-1217 1102 1149 0
1217 -1215 -1102 0
1217 -1215 -1149 0
1217 -1102 -1149 0
-1220 1217 1104 1150 0
-1220 1217 -1104 -1150 0
-1220 -1217 1104 -1150 0
1220 1217 1104 -1150 0
-1220 -1217 -1104 1150 0
1220 1217 -1104 1150 0
1220 -1217 1104 1150 0
1220 -1217 -1104 -1150 0
-1219 1217 1104 0
-1219 1217 1150 0
-1219 1104 1150 0
1219 -1217 -1104 0
1219 -1217 -1150 0
1219 -1104 -1150 0
-1222 1219 1106 1151 0
-1222 1219 -1106 -1151 0
-1222 -1219 1106 -1151 0
1222 1219 1106 -1151 0
-1222 -1219 -1106 1151 0
1222 1219 -1106 1151 0
1222 -1219 1106 1151 0
1222 -1219 -1106 -1151 0
-1221 1219 1106 0
-1221 1219 1151 0
-1221 1106 1151 0
1221 -1219 -1106 0
1221 -1219 -1151 0
1221 -1106 -1151 0
-1224 1221 1108 1152 0
-1224 1221 -1108 -1152 0
-1224 -1221 1108 -1152 0
1224 1221 1108 -1152 0
-1224 -1221 -1108 1152 0
1224 1221 -1108 1152 0
1224 -1221 1108 1152 0
1224 -1221 -1108 -1152 0
-1223 1221 1108 0
-1223 1221 1152 0
-1223 1108 1152 0
1223 -1221 -1108 0
1223 -1221 -1152 0
1223 -1108 -1152 0
-1226 1223 1110 1153 0
-1226 1223 -1110 -1153 0
-1226 -1223 1110 -1153 0
1226 1223 1110 -1153 0
-1226 -1223 -1110 1153 0
1226 1223 -1110 1153 0
1226 -1223 1110 1153 0
1226 -1223 -1110 -1153 0
-1225 1223 1110 0
-1225 1223 1153 0
-1225 1110 1153 0
1225 -1223 -1110 0
1225 -1223 -1153 0
1225 -1110 -1153 0
-1228 1225 1112 1154 0
-1228 1225 -1112 -1154 0
-1228 -1225 1112 -1154 0
1228 1225 1112 -1154 0
-1228 -1225 -1112 1154 0
1228 1225 -1112 1154 0
1228 -1225 1112 1154 0
1228 -1225 -1112 -1154 0
-1227 1225 1112 0
-1227 1225 1154 0
-1227 1112 1154 0
1227 -1225 -1112 0
1227 -1225 -1154 0
1227 -1112 -1154 0
-1230 1227 1114 1155 0
-1230 1227 -1114 -1155 0
-1230 -1227 1114 -1155 0
1230 1227 1114 -1155 0
-1230 -1227 -1114 1155 0
1230 1227 -1114 1155 0
1230 -1227 1114 1155 0
1230 -1227 -1114 -1155 0
-1229 1227 1114 0
-1229 1227 1155 0
-1229 1114 1155 0
1229 -1227 -1114 0
1229 -1227 -1155 0
1229 -1114 -1155 0
-1232 1229 1116 1156 0
-1232 1229 -1116 -1156 0
-1232 -1229 1116 -1156 0
1232 1229 1116 -1156 0
-1232 -1229 -1116 1156 0
1232 1229 -1116 1156 0
1232 -1229 1116 1156 0
1232 -1229 -1116 -1156 0
-1231 1229 1116 0
-1231 1229 1156 0
-1231 1116 1156 0
1231 -1229 -1116 0
1231 -1229 -1156 0
1231 -1116 -1156 0
-1234 1231 1118 1157 0
-1234 1231 -1118 -1157 0
-1234 -1231 1118 -1157 0
1234 1231 1118 -1157 0
-1234 -1231 -1118 1157 0
1234 1231 -1118 1157 0
1234 -1231 1118 1157 0
1234 -1231 -1118 -1157 0
-1233 1231 1118 0
-1233 1231 1157 0
-1233 1118 1157 0
1233 -1231 -1118 0
1233 -1231 -1157 0
1233 -1118 -1157 0
-1236 1233 1120 1158 0
-1236 1233 -1120 -1158 0
-1236 -1233 1120 -1158 0
1236 1233 1120 -1158 0
-1236 -1233 -1120 1158 0
1236 1233 -1120 1158 0
1236 -1233 1120 1158 0
1236 -1233 -1120 -1158 0
-1235 1233 1120 0
-1235 1233 1158 0
-1235 1120 1158 0
1235 -1233 -1120 0
1235 -1233 -1158 0
1235 -1120 -1158 0
-1238 1235 1122 1159 0
-1238 1235 -1122 -1159 0
-1238 -1235 1122 -1159 0
1238 1235 1122 -1159 0
-1238 -1235 -1122 1159 0
1238 1235 -1122 1159 0
1238 -1235 1122 1159 0
1238 -1235 -1122 -1159 0
-1237 1235 1122 0
-1237 1235 1159 0
-1237 1122 1159 0
1237 -1235 -1122 0
1237 -1235 -1159 0
1237 -1122 -1159 0
-1240 1237 1124 1160 0
-1240 1237 -1124 -1160 0
-1240 -1237 1124 -1160 0
1240 1237 1124 -1160 0
-1240 -1237 -1124 1160 0
1240 1237 -1124 1160 0
1240 -1237 1124 1160 0
1240 -1237 -1124 -1160 0
-1239 1237 1124 0
-1239 1237 1160 0
-1239 1124 1160 0
1239 -1237 -1124 0
1239 -1237 -1160 0
1239 -1124 -1160 0
-1242 1239 1126 1161 0
-1242 1239 -1126 -1161 0
-1242 -1239 1126 -1161 0
1242 1239 1126 -1161 0
-1242 -1239 -1126 1161 0
1242 1239 -1126 1161 0
1242 -1239 1126 1161 0
1242 -1239 -1126 -1161 0
-1241 1239 1126 0
-1241 1239 1161 0
-1241 1126 1161 0
1241 -1239 -1126 0
1241 -1239 -1161 0
1241 -1126 -1161 0
-1244 1241 1128 1162 0
-1244 1241 -1128 -1162 0
-1244 -1241 1128 -1162 0
1244 1241 1128 -1162 0
-1244 -1241 -1128 1162 0
1244 1241 -1128 1162 0
1244 -1241 1128 1162 0
1244 -1241 -1128 -1162 0
-1243 1241 1128 0
-1243 1241 1162 0
-1243 1128 1162 0
1243 -1241 -1128 0
1243 -1241 -1162 0
1243 -1128 -1162 0
-1246 1243 1130 1163 0
-1246 1243 -1130 -1163 0
-1246 -1243 1130 -1163 0
1246 1243 1130 -1163 0
-1246 -1243 -1130 1163 0
1246 1243 -1130 1163 0
1246 -1243 1130 1163 0
1246 -1243 -1130 -1163 0
-1245 1243 1130 0
-1245 1243 1163 0
-1245 1130 1163 0
1245 -1243 -1130 0
1245 -1243 -1163 0
1245 -1130 -1163 0
-1248 1245 1132 1164 0
-1248 1245 -1132 -1164 0
-1248 -1245 1132 -1164 0
1248 1245 1132 -1164 0
-1248 -1245 -1132 1164 0
1248 1245 -1132 1164 0
1248 -1245 1132 1164 0
1248 -1245 -1132 -1164 0
-1247 1245 1132 0
-1247 1245 1164 0
-1247 1132 1164 0
1247 -1245 -1132 0
1247 -1245 -1164 0
1247 -1132 -1164 0
-1250 1247 1134 1165 0
-1250 1247 -1134 -1165 0
-1250 -1247 1134 -1165 0
1250 1247 1134 -1165 0
-1250 -1247 -1134 1165 0
1250 1247 -1134 1165 0
1250 -1247 1134 1165 0
1250 -1247 -1134 -1165 0
-1249 1247 1134 0
-1249 1247 1165 0
-1249 1134 1165 0
1249 -1247 -1134 0
1249 -1247 -1165 0
1249 -1134 -1165 0
-1252 1249 1133 1166 0
-1252 1249 -1133 -1166 0
-1252 -1249 1133 -1166 0
1252 1249 1133 -1166 0
-1252 -1249 -1133 1166 0
1252 1249 -1133 1166 0
1252 -1249 1133 1166 0
1252 -1249 -1133 -1166 0
-1251 1249 1133 0
-1251 1249 1166 0
-1251 1133 1166 0
1251 -1249 -1133 0
1251 -1249 -1166 0
1251 -1133 -1166 0
-1253 1 0
-1253 13 0
1253 -1 -13 0
-1254 2 0
-1254 13 0
1254 -2 -13 0
-1255 3 0
-1255 13 0
1255 -3 -13 0
-1256 4 0
-1256 13 0
1256 -4 -13 0
-1257 5 0
-1257 13 0
1257 -5 -13 0
-1258 6 0
-1258 13 0
1258 -6 -13 0
-1259 7 0
-1259 13 0
1259 -7 -13 0
-1260 8 0
-1260 13 0
1260 -8 -13 0
-1261 9 0
-1261 13 0
1261 -9 -13 0
-1262 10 0
-1262 13 0
1262 -10 -13 0
-1263 11 0
-1263 13 0
1263 -11 -13 0
-1264 12 0
-1264 13 0
1264 -12 -13 0
-1265 13 0
1265 -13 0
-1266 14 0
-1266 13 0
1266 -14 -13 0
-1267 15 0
-1267 13 0
1267 -15 -13 0
-1268 16 0
-1268 13 0
1268 -16 -13 0
-1269 17 0
-1269 13 0
1269 -17 -13 0
-1270 18 0
-1270 13 0
1270 -18 -13 0
-1271 19 0
-1271 13 0
1271 -19 -13 0
-1272 20 0
-1272 13 0
1272 -20 -13 0
-1273 21 0
-1273 13 0
1273 -21 -13 0
-1274 22 0
-1274 13 0
1274 -22 -13 0
-1275 23 0
-1275 13 0
1275 -23 -13 0
-1276 24 0
-1276 13 0
1276 -24 -13 0
-1277 25 0
-1277 13 0
1277 -25 -13 0
-1278 26 0
-1278 13 0
1278 -26 -13 0
-1279 27 0
-1279 13 0
1279 -27 -13 0
-1280 28 0
-1280 13 0
1280 -28 -13 0
-1281 29 0
-1281 13 0
1281 -29 -13 0
-1282 30 0
-1282 13 0
1282 -30 -13 0
-1283 31 0
-1283 13 0
1283 -31 -13 0
-1284 32 0
-1284 13 0
1284 -32 -13 0
-1168 1286 0
1168 -1286 0
-1285 0
1170 1285 -1288 0
-1170 -1285 -1288 0
-1170 1285 1288 0
1170 -1285 1288 0
-1287 1285 0
-1287 1170 0
1287 -1285 -1170 0
1172 1287 -1290 0
-1172 -1287 -1290 0
-1172 1287 1290 0
1172 -1287 1290 0
-1289 1287 0
-1289 1172 0
1289 -1287 -1172 0
1174 1289 -1292 0
-1174 -1289 -1292 0
-1174 1289 1292 0
1174 -1289 1292 0
-1291 1289 0
-1291 1174 0
1291 -1289 -1174 0
1176 1291 -1294 0
-1176 -1291 -1294 0
-1176 1291 1294 0
1176 -1291 1294 0
-1293 1291 0
-1293 1176 0
1293 -1291 -1176 0
1178 1293 -1296 0
-1178 -1293 -1296 0
-1178 1293 1296 0
1178 -1293 1296 0
-1295 1293 0
-1295 1178 0
1295 -1293 -1178 0
1180 1295 -1298 0
-1180 -1295 -1298 0
-1180 1295 1298 0
1180 -1295 1298 0
-1297 1295 0
-1297 1180 0
1297 -1295 -1180 0
1182 1297 -1300 0
-1182 -1297 -1300 0
-1182 1297 1300 0
1182 -1297 1300 0
-1299 1297 0
-1299 1182 0
1299 -1297 -1182 0
1184 1299 -1302 0
-1184 -1299 -1302 0
-1184 1299 1302 0
1184 -1299 1302 0
-1301 1299 0
-1301 1184 0
1301 -1299 -1184 0
1186 1301 -1304 0
-1186 -1301 -1304 0
-1186 1301 1304 0
1186 -1301 1304 0
-1303 1301 0
-1303 1186 0
1303 -1301 -1186 0
1188 1303 -1306 0
-1188 -1303 -1306 0
-1188 1303 1306 0
1188 -1303 1306 0
-1305 1303 0
-1305 1188 0
1305 -1303 -1188 0
1190 1305 -1308 0
-1190 -1305 -1308 0
-1190 1305 1308 0
1190 -1305 1308 0
-1307 1305 0
-1307 1190 0
1307 -1305 -1190 0
-1310 1307 1192 1253 0
-1310 1307 -1192 -1253 0
-1310 -1307 1192 -1253 0
1310 1307 1192 -1253 0
-1310 -1307 -1192 1253 0
1310 1307 -1192 1253 0
1310 -1307 1192 1253 0
1310 -1307 -1192 -1253 0
-1309 1307 1192 0
-1309 1307 1253 0
-1309 1192 1253 0
1309 -1307 -1192 0
1309 -1307 -1253 0
1309 -1192 -1253 0
-1312 1309 1194 1254 0
-1312 1309 -1194 -1254 0
-1312 -1309 1194 -1254 0
1312 1309 1194 -1254 0
-1312 -1309 -1194 1254 0
1312 1309 -1194 1254 0
1312 -1309 1194 1254 0
1312 -1309 -1194 -1254 0
-1311 1309 1194 0
-1311 1309 1254 0
-1311 1194 1254 0
1311 -1309 -1194 0
1311 -1309 -1254 0
1311 -1194 -1254 0
-1314 1311 1196 1255 0
-1314 1311 -1196 -1255 0
-1314 -1311 1196 -1255 0
1314 1311 1196 -1255 0
-1314 -1311 -1196 1255 0
1314 1311 -1196 1255 0
1314 -1311 1196 1255 0
1314 -1311 -1196 -1255 0
-1313 1311 1196 0
-1313 1311 1255 0
-1313 1196 1255 0
1313 -1311 -1196 0
1313 -1311 -1255 0
1313 -1196 -1255 0
-1316 1313 1198 1256 0
-1316 1313 -1198 -1256 0
-1316 -1313 1198 -1256 0
1316 1313 1198 -1256 0
-1316 -1313 -1198 1256 0
1316 1313 -1198 1256 0
1316 -1313 1198 1256 0
1316 -1313 -1198 -1256 0
-1315 1313 1198 0
-1315 1313 1256 0
-1315 1198 1256 0
1315 -1313 -1198 0
1315 -1313 -1256 0
1315 -1198 -1256 0
-1318 1315 1200 1257 0
-1318 1315 -1200 -1257 0
-1318 -1315 1200 -1257 0
1318 1315 1200 -1257 0
-1318 -1315 -1200 1257 0
1318 1315 -1200 1257 0
1318 -1315 1200 1257 0
1318 -1315 -1200 -1257 0
-1317 1315 1200 0
-1317 1315 1257 0
-1317 1200 1257 0
1317 -1315 -1200 0
1317 -1315 -1257 0
1317 -1200 -1257 0
-1320 1317 1202 1258 0
-1320 1317 -1202 -1258 0
-1320 -1317 1202 -1258 0
1320 1317 1202 -1258 0
-1320 -1317 -1202 1258 0
1320 1317 -1202 1258 0
1320 -1317 1202 1258 0
1320 -1317 -1202 -1258 0
-1319 1317 1202 0
-1319 1317 1258 0
-1319 1202 1258 0
1319 -1317 -1202 0
1319 -1317 -1258 0
1319 -1202 -1258 0
-1322 1319 1204 1259 0
-1322 1319 -1204 -1259 0
-1322 -1319 1204 -1259 0
1322 1319 1204 -1259 0
-1322 -1319 -1204 1259 0
1322 1319 -1204 1259 0
1322 -1319 1204 1259 0
1322 -1319 -1204 -1259 0
-1321 1319 1204 0
-1321 1319 1259 0
-1321 1204 1259 0
1321 -1319 -1204 0
1321 -1319 -1259 0
1321 -1204 -1259 0
-1324 1321 1206 1260 0
-1324 1321 -1206 -1260 0
-1324 -1321 1206 -1260 0
1324 1321 1206 -1260 0
-1324 -1321 -1206 1260 0
1324 1321 -1206 1260 0
1324 -1321 1206 1260 0
1324 -1321 -1206 -1260 0
-1323 1321 1206 0
-1323 1321 1260 0
-1323 1206 1260 0
1323 -1321 -1206 0
1323 -1321 -1260 0
1323 -1206 -1260 0
-1326 1323 1208 1261 0
-1326 1323 -1208 -1261 0
-1326 -1323 1208 -1261 0
1326 1323 1208 -1261 0
-1326 -1323 -1208 1261 0
1326 1323 -1208 1261 0
1326 -1323 1208 1261 0
1326 -1323 -1208 -1261 0
-1325 1323 1208 0
-1325 1323 1261 0
-1325 1208 1261 0
1325 -1323 -1208 0
1325 -1323 -1261 0
1325 -1208 -1261 0
-1328 1325 1210 1262 0
-1328 1325 -1210 -1262 0
-1328 -1325 1210 -1262 0
1328 1325 1210 -1262 0
-1328 -1325 -1210 1262 0
1328 1325 -1210 1262 0
1328 -1325 1210 1262 0
1328 -1325 -1210 -1262 0
-1327 1325 1210 0
-1327 1325 1262 0
-1327 1210 1262 0
1327 -1325 -1210 0
1327 -1325 -1262 0
1327 -1210 -1262 0
-1330 1327 1212 1263 0
-1330 1327 -1212 -1263 0
-1330 -1327 1212 -1263 0
1330 1327 1212 -1263 0
-1330 -1327 -1212 1263 0
1330 1327 -1212 1263 0
1330 -1327 1212 1263 0
1330 -1327 -1212 -1263 0
-1329 1327 1212 0
-1329 1327 1263 0
-1329 1212 1263 0
1329 -1327 -1212 0
1329 -1327 -1263 0
1329 -1212 -1263 0
-1332 1329 1214 1264 0
-1332 1329 -1214 -1264 0
-1332 -1329 1214 -1264 0
1332 1329 1214 -1264 0
-1332 -1329 -1214 1264 0
1332 1329 -1214 1264 0
1332 -1329 1214 1264 0
1332 -1329 -1214 -1264 0
-1331 1329 1214 0
-1331 1329 1264 0
-1331 1214 1264 0
1331 -1329 -1214 0
1331 -1329 -1264 0
1331 -1214 -1264 0
-1334 1331 1216 1265 0
-1334 1331 -1216 -1265 0
-1334 -1331 1216 -1265 0
1334 1331 1216 -1265 0
-1334 -1331 -1216 1265 0
1334 1331 -1216 1265 0
1334 -1331 1216 1265 0
1334 -1331 -1216 -1265 0
-1333 1331 1216 0
-1333 1331 1265 0
-1333 1216 1265 0
1333 -1331 -1216 0
1333 -1331 -1265 0
1333 -1216 -1265 0
-1336 1333 1218 1266 0
-1336 1333 -1218 -1266 0
-1336 -1333 1218 -1266 0
1336 1333 1218 -1266 0
-1336 -1333 -1218 1266 0
1336 1333 -1218 1266 0
1336 -1333 1218 1266 0
1336 -1333 -1218 -1266 0
-1335 1333 1218 0
-1335 1333 1266 0
-1335 1218 1266 0
1335 -1333 -1218 0
1335 -1333 -1266 0
1335 -1218 -1266 0
-1338 1335 1220 1267 0
-1338 1335 -1220 -1267 0
-1338 -1335 1220 -1267 0
1338 1335 1220 -1267 0
-1338 -1335 -1220 1267 0
1338 1335 -1220 1267 0
1338 -1335 1220 1267 0
1338 -1335 -1220 -1267 0
-1337 1335 1220 0
-1337 1335 1267 0
-1337 1220 1267 0
1337 -1335 -1220 0
1337 -1335 -1267 0
1337 -1220 -1267 0
-1340 1337 1222 1268 0
-1340 1337 -1222 -1268 0
-1340 -1337 1222 -1268 0
1340 1337 1222 -1268 0
-1340 -1337 -1222 1268 0
1340 1337 -1222 1268 0
1340 -1337 1222 1268 0
1340 -1337 -1222 -1268 0
-1339 1337 1222 0
-1339 1337 1268 0
-1339 1222 1268 0
1339 -1337 -1222 0
1339 -1337 -1268 0
1339 -1222 -1268 0
-1342 1339 1224 1269 0
-1342 1339 -1224 -1269 0
-1342 -1339 1224 -1269 0
1342 1339 1224 -1269 0
-1342 -1339 -1224 1269 0
1342 1339 -1224 1269 0
1342 -1339 1224 1269 0
1342 -1339 -1224 -1269 0
-1341 1339 1224 0
-1341 1339 1269 0
-1341 1224 1269 0
1341 -1339 -1224 0
1341 -1339 -1269 0
1341 -1224 -1269 0
-1344 1341 1226 1270 0
-1344 1341 -1226 -1270 0
-1344 -1341 1226 -1270 0
1344 1341 1226 -1270 0
-1344 -1341 -1226 1270 0
1344 1341 -1226 1270 0
1344 -1341 1226 1270 0
1344 -1341 -1226 -1270 0
-1343 1341 1226 0
-1343 1341 1270 0
-1343 1226 1270 0
1343 -1341 -1226 0
1343 -1341 -1270 0
1343 -1226 -1270 0
-1346 1343 1228 1271 0
-1346 1343 -1228 -1271 0
-1346 -1343 1228 -1271 0
1346 1343 1228 -1271 0
-1346 -1343 -1228 1271 0
1346 1343 -1228 1271 0
1346 -1343 1228 1271 0
1346 -1343 -1228 -1271 0
-1345 1343 1228 0
-1345 1343 1271 0
-1345 1228 1271 0
1345 -1343 -1228 0
1345 -1343 -1271 0
1345 -1228 -1271 0
-1348 1345 1230 1272 0
-1348 1345 -1230 -1272 0
-1348 -1345 1230 -1272 0
1348 1345 1230 -1272 0
-1348 -1345 -1230 1272 0
1348 1345 -1230 1272 0
1348 -1345 1230 1272 0
1348 -1345 -1230 -1272 0
-1347 1345 1230 0
-1347 1345 1272 0
-1347 1230 1272 0
1347 -1345 -1230 0
1347 -1345 -1272 0
1347 -1230 -1272 0
-1350 1347 1232 1273 0
-1350 1347 -1232 -1273 0
-1350 -1347 1232 -1273 0
1350 1347 1232 -1273 0
-1350 -1347 -1232 1273 0
1350 1347 -1232 1273 0
1350 -1347 1232 1273 0
1350 -1347 -1232 -1273 0
-1349 1347 1232 0
-1349 1347 1273 0
-1349 1232 1273 0
1349 -1347 -1232 0
1349 -1347 -1273 0
1349 -1232 -1273 0
-1352 1349 1234 1274 0
-1352 1349 -1234 -1274 0
-1352 -1349 1234 -1274 0
1352 1349 1234 -1274 0
-1352 -1349 -1234 1274 0
1352 1349 -1234 1274 0
1352 -1349 1234 1274 0
1352 -1349 -1234 -1274 0
-1351 1349 1234 0
-1351 1349 1274 0
-1351 1234 1274 0
1351 -1349 -1234 0
1351 -1349 -1274 0
1351 -1234 -1274 0
-1354 1351 1236 1275 0
-1354 1351 -1236 -1275 0
-1354 -1351 1236 -1275 0
1354 1351 1236 -1275 0
-1354 -1351 -1236 1275 0
1354 1351 -1236 1275 0
1354 -1351 1236 1275 0
1354 -1351 -1236 -1275 0
-1353 1351 1236 0
-1353 1351 1275 0
-1353 1236 1275 0
1353 -1351 -1236 0
1353 -1351 -1275 0
1353 -1236 -1275 0
-1356 1353 1238 1276 0
-1356 1353 -1238 -1276 0
-1356 -1353 1238 -1276 0
1356 1353 1238 -1276 0
-1356 -1353 -1238 1276 0
1356 1353 -1238 1276 0
1356 -1353 1238 1276 0
1356 -1353 -1238 -1276 0
-1355 1353 1238 0
-1355 1353 1276 0
-1355 1238 1276 0
1355 -1353 -1238 0
1355 -1353 -1276 0
1355 -1238 -1276 0
-1358 1355 1240 1277 0
-1358 1355 -1240 -1277 0
-1358 -1355 1240 -1277 0
1358 1355 1240 -1277 0
-1358 -1355 -1240 1277 0
1358 1355 -1240 1277 0
1358 -1355 1240 1277 0
1358 -1355 -1240 -1277 0
-1357 1355 1240 0
-1357 1355 1277 0
-1357 1240 1277 0
1357 -1355 -1240 0
1357 -1355 -1277 0
1357 -1240 -1277 0
-1360 1357 1242 1278 0
-1360 1357 -1242 -1278 0
-1360 -1357 1242 -1278 0
1360 1357 1242 -1278 0
-1360 -1357 -1242 1278 0
1360 1357 -1242 1278 0
1360 -1357 1242 1278 0
1360 -1357 -1242 -1278 0
-1359 1357 1242 0
-1359 1357 1278 0
-1359 1242 1278 0
1359 -1357 -1242 0
1359 -1357 -1278 0
1359 -1242 -1278 0
-1362 1359 1244 1279 0
-1362 1359 -1244 -1279 0
-1362 -1359 1244 -1279 0
1362 1359 1244 -1279 0
-1362 -1359 -1244 1279 0
1362 1359 -1244 1279 0
1362 -1359 1244 1279 0
1362 -1359 -1244 -1279 0
-1361 1359 1244 0
-1361 1359 1279 0
-1361 1244 1279 0
1361 -1359 -1244 0
1361 -1359 -1279 0
1361 -1244 -1279 0
-1364 1361 1246 1280 0
-1364 1361 -1246 -1280 0
-1364 -1361 1246 -1280 0
1364 1361 1246 -1280 0
-1364 -1361 -1246 1280 0
1364 1361 -1246 1280 0
1364 -1361 1246 1280 0
1364 -1361 -1246 -1280 0
-1363 1361 1246 0
-1363 1361 1280 0
-1363 1246 1280 0
1363 -1361 -1246 0
1363 -1361 -1280 0
1363 -1246 -1280 0
-1366 1363 1248 1281 0
-1366 1363 -1248 -1281 0
-1366 -1363 1248 -1281 0
1366 1363 1248 -1281 0
-1366 -1363 -1248 1281 0
1366 1363 -1248 1281 0
1366 -1363 1248 1281 0
1366 -1363 -1248 -1281 0
-1365 1363 1248 0
-1365 1363 1281 0
-1365 1248 1281 0
1365 -1363 -1248 0
1365 -1363 -1281 0
1365 -1248 -1281 0
-1368 1365 1250 1282 0
-1368 1365 -1250 -1282 0
-1368 -1365 1250 -1282 0
1368 1365 1250 -1282 0
-1368 -1365 -1250 1282 0
1368 1365 -1250 1282 0
1368 -1365 1250 1282 0
1368 -1365 -1250 -1282 0
-1367 1365 1250 0
-1367 1365 1282 0
-1367 1250 1282 0
1367 -1365 -1250 0
1367 -1365 -1282 0
1367 -1250 -1282 0
-1370 1367 1252 1283 0
-1370 1367 -1252 -1283 0
-1370 -1367 1252 -1283 0
1370 1367 1252 -1283 0
-1370 -1367 -1252 1283 0
1370 1367 -1252 1283 0
1370 -1367 1252 1283 0
1370 -1367 -1252 -1283 0
-1369 1367 1252 0
-1369 1367 1283 0
-1369 1252 1283 0
1369 -1367 -1252 0
1369 -1367 -1283 0
1369 -1252 -1283 0
-1372 1369 1251 1284 0
-1372 1369 -1251 -1284 0
-1372 -1369 1251 -1284 0
1372 1369 1251 -1284 0
-1372 -1369 -1251 1284 0
1372 1369 -1251 1284 0
1372 -1369 1251 1284 0
1372 -1369 -1251 -1284 0
-1371 1369 1251 0
-1371 1369 1284 0
-1371 1251 1284 0
1371 -1369 -1251 0
1371 -1369 -1284 0
1371 -1251 -1284 0
-1373 1 0
-1373 14 0
1373 -1 -14 0
-1374 2 0
-1374 14 0
1374 -2 -14 0
-1375 3 0
-1375 14 0
1375 -3 -14 0
-1376 4 0
-1376 14 0
1376 -4 -14 0
-1377 5 0
-1377 14 0
1377 -5 -14 0
-1378 6 0
-1378 14 0
1378 -6 -14 0
-1379 7 0
-1379 14 0
1379 -7 -14 0
-1380 8 0
-1380 14 0
1380 -8 -14 0
-1381 9 0
-1381 14 0
1381 -9 -14 0
-1382 10 0
-1382 14 0
1382 -10 -14 0
-1383 11 0
-1383 14 0
1383 -11 -14 0
-1384 12 0
-1384 14 0
1384 -12 -14 0
-1385 13 0
-1385 14 0
1385 -13 -14 0
-1386 14 0
1386 -14 0
-1387 15 0
-1387 14 0
1387 -15 -14 0
-1388 16 0
-1388 14 0
1388 -16 -14 0
-1389 17 0
-1389 14 0
1389 -17 -14 0
-1390 18 0
-1390 14 0
1390 -18 -14 0
-1391 19 0
-1391 14 0
1391 -19 -14 0
-1392 20 0
-1392 14 0
1392 -20 -14 0
-1393 21 0
-1393 14 0
1393 -21 -14 0
-1394 22 0
-1394 14 0
1394 -22 -14 0
-1395 23 0
-1395 14 0
1395 -23 -14 0
-1396 24 0
-1396 14 0
1396 -24 -14 0
-1397 25 0
-1397 14 0
1397 -25 -14 0
-1398 26 0
-1398 14 0
1398 -26 -14 0
-1399 27 0
-1399 14 0
1399 -27 -14 0
-1400 28 0
-1400 14 0
1400 -28 -14 0
-1401 29 0
-1401 14 0
1401 -29 -14 0
-1402 30 0
-1402 14 0
1402 -30 -14 0
-1403 31 0
-1403 14 0
1403 -31 -14 0
-1404 32 0
-1404 14 0
1404 -32 -14 0
-1286 1406 0
1286 -1406 0
-1405 0
1288 1405 -1408 0
-1288 -1405 -1408 0
-1288 1405 1408 0
1288 -1405 1408 0
-1407 1405 0
-1407 1288 0
1407 -1405 -1288 0
1290 1407 -1410 0
-1290 -1407 -1410 0
-1290 1407 1410 0
1290 -1407 1410 0
-1409 1407 0
-1409 1290 0
1409 -1407 -1290 0
1292 1409 -1412 0
-1292 -1409 -1412 0
-1292 1409 1412 0
1292 -1409 1412 0
-1411 1409 0
-1411 1292 0
1411 -1409 -1292 0
1294 1411 -1414 0
-1294 -1411 -1414 0
-1294 1411 1414 0
1294 -1411 1414 0
-1413 1411 0
-1413 1294 0
1413 -1411 -1294 0
1296 1413 -1416 0
-1296 -1413 -1416 0
-1296 1413 1416 0
1296 -1413 1416 0
-1415 1413 0
-1415 1296 0
1415 -1413 -1296 0
1298 1415 -1418 0
-1298 -1415 -1418 0
-1298 1415 1418 0
1298 -1415 1418 0
-1417 1415 0
-1417 1298 0
1417 -1415 -1298 0
1300 1417 -1420 0
-1300 -1417 -1420 0
-1300 1417 1420 0
1300 -1417 1420 0
-1419 1417 0
-1419 1300 0
1419 -1417 -1300 0
1302 1419 -1422 0
-1302 -1419 -1422 0
-1302 1419 1422 0
1302 -1419 1422 0
-1421 1419 0
-1421 1302 0
1421 -1419 -1302 0
1304 1421 -1424 0
-1304 -1421 -1424 0
-1304 1421 1424 0
1304 -1421 1424 0
-1423 1421 0
-1423 1304 0
1423 -1421 -1304 0
1306 1423 -1426 0
-1306 -1423 -1426 0
-1306 1423 1426 0
1306 -1423 1426 0
-1425 1423 0
-1425 1306 0
1425 -1423 -1306 0
1308 1425 -1428 0
-1308 -1425 -1428 0
-1308 1425 1428 0
1308 -1425 1428 0
-1427 1425 0
-1427 1308 0
1427 -1425 -1308 0
1310 1427 -1430 0
-1310 -1427 -1430 0
-1310 1427 1430 0
1310 -1427 1430 0
-1429 1427 0
-1429 1310 0
1429 -1427 -1310 0
-1432 1429 1312 1373 0
-1432 1429 -1312 -1373 0
-1432 -1429 1312 -1373 0
1432 1429 1312 -1373 0
-1432 -1429 -1312 1373 0
1432 1429 -1312 1373 0
1432 -1429 1312 1373 0
1432 -1429 -1312 -1373 0
-1431 1429 1312 0
-1431 1429 1373 0
-1431 1312 1373 0
1431 -1429 -1312 0
1431 -1429 -1373 0
1431 -1312 -1373 0
-1434 1431 1314 1374 0
-1434 1431 -1314 -1374 0
-1434 -1431 1314 -1374 0
1434 1431 1314 -1374 0
-1434 -1431 -1314 1374 0
1434 1431 -1314 1374 0
1434 -1431 1314 1374 0
1434 -1431 -1314 -1374 0
-1433 1431 1314 0
-1433 1431 1374 0
-1433 1314 1374 0
1433 -1431 -1314 0
1433 -1431 -1374 0
1433 -1314 -1374 0
-1436 1433 1316 1375 0
-1436 1433 -1316 -1375 0
-1436 -1433 1316 -1375 0
1436 1433 1316 -1375 0
-1436 -1433 -1316 1375 0
1436 1433 -1316 1375 0
1436 -1433 1316 1375 0
1436 -1433 -1316 -1375 0
-1435 1433 1316 0
-1435 1433 1375 0
-1435 1316 1375 0
1435 -1433 -1316 0
1435 -1433 -1375 0
1435 -1316 -1375 0
-1438 1435 1318 1376 0
-1438 1435 -1318 -1376 0
-1438 -1435 1318 -1376 0
1438 1435 1318 -1376 0
-1438 -1435 -1318 1376 0
1438 1435 -1318 1376 0
1438 -1435 1318 1376 0
1438 -1435 -1318 -1376 0
-1437 1435 1318 0
-1437 1435 1376 0
-1437 1318 1376 0
1437 -1435 -1318 0
1437 -1435 -1376 0
1437 -1318 -1376 0
-1440 1437 1320 1377 0
-1440 1437 -1320 -1377 0
-1440 -1437 1320 -1377 0
1440 1437 1320 -1377 0
-1440 -1437 -1320 1377 0
1440 1437 -1320 1377 0
1440 -1437 1320 1377 0
1440 -1437 -1320 -1377 0
-1439 1437 1320 0
-1439 1437 1377 0
-1439 1320 1377 0
1439 -1437 -1320 0
1439 -1437 -1377 0
1439 -1320 -1377 0
-1442 1439 1322 1378 0
-1442 1439 -1322 -1378 0
-1442 -1439 1322 -1378 0
1442 1439 1322 -1378 0
-1442 -1439 -1322 1378 0
1442 1439 -1322 1378 0
1442 -1439 1322 1378 0
1442 -1439 -1322 -1378 0
-1441 1439 1322 0
-1441 1439 1378 0
-1441 1322 1378 0
1441 -1439 -1322 0
1441 -1439 -1378 0
1441 -1322 -1378 0
-1444 1441 1324 1379 0
-1444 1441 -1324 -1379 0
-1444 -1441 1324 -1379 0
1444 1441 1324 -1379 0
-1444 -1441 -1324 1379 0
1444 1441 -1324 1379 0
1444 -1441 1324 1379 0
1444 -1441 -1324 -1379 0
-1443 1441 1324 0
-1443 1441 1379 0
-1443 1324 1379 0
1443 -1441 -1324 0
1443 -1441 -1379 0
1443 -1324 -1379 0
-1446 1443 1326 1380 0
-1446 1443 -1326 -1380 0
-1446 -1443 1326 -1380 0
1446 1443 1326 -1380 0
-1446 -1443 -1326 1380 0
1446 1443 -1326 1380 0
1446 -1443 1326 1380 0
1446 -1443 -1326 -1380 0
-1445 1443 1326 0
-1445 1443 1380 0
-1445 1326 1380 0
1445 -1443 -1326 0
1445 -1443 -1380 0
1445 -1326 -1380 0
-1448 1445 1328 1381 0
-1448 1445 -1328 -1381 0
-1448 -1445 1328 -1381 0
1448 1445 1328 -1381 0
-1448 -1445 -1328 1381 0
1448 1445 -1328 1381 0
1448 -1445 1328 1381 0
1448 -1445 -1328 -1381 0
-1447 1445 1328 0
-1447 1445 1381 0
-1447 1328 1381 0
1447 -1445 -1328 0
1447 -1445 -1381 0
1447 -1328 -1381 0
-1450 1447 1330 1382 0
-1450 1447 -1330 -1382 0
-1450 -1447 1330 -1382 0
1450 1447 1330 -1382 0
-1450 -1447 -1330 1382 0
1450 1447 -1330 1382 0
1450 -1447 1330 1382 0
1450 -1447 -1330 -1382 0
-1449 1447 1330 0
-1449 1447 1382 0
-1449 1330 1382 0
1449 -1447 -1330 0
1449 -1447 -1382 0
1449 -1330 -1382 0
-1452 1449 1332 1383 0
-1452 1449 -1332 -1383 0
-1452 -1449 1332 -1383 0
1452 1449 1332 -1383 0
-1452 -1449 -1332 1383 0
1452 1449 -1332 1383 0
1452 -1449 1332 1383 0
1452 -1449 -1332 -1383 0
-1451 1449 1332 0
-1451 1449 1383 0
-1451 1332 1383 0
1451 -1449 -1332 0
1451 -1449 -1383 0
1451 -1332 -1383 0
-1454 1451 1334 1384 0
-1454 1451 -1334 -1384 0
-1454 -1451 1334 -1384 0
1454 1451 1334 -1384 0
-1454 -1451 -1334 1384 0
1454 1451 -1334 1384 0
1454 -1451 1334 1384 0
1454 -1451 -1334 -1384 0
-1453 1451 1334 0
-1453 1451 1384 0
-1453 1334 1384 0
1453 -1451 -1334 0
1453 -1451 -1384 0
1453 -1334 -1384 0
-1456 1453 1336 1385 0
-1456 1453 -1336 -1385 0
-1456 -1453 1336 -1385 0
1456 1453 1336 -1385 0
-1456 -1453 -1336 1385 0
1456 1453 -1336 1385 0
1456 -1453 1336 1385 0
1456 -1453 -1336 -1385 0
-1455 1453 1336 0
-1455 1453 1385 0
-1455 1336 1385 0
1455 -1453 -1336 0
1455 -1453 -1385 0
1455 -1336 -1385 0
-1458 1455 1338 1386 0
-1458 1455 -1338 -1386 0
-1458 -1455 1338 -1386 0
1458 1455 1338 -1386 0
-1458 -1455 -1338 1386 0
1458 1455 -1338 1386 0
1458 -1455 1338 1386 0
1458 -1455 -1338 -1386 0
-1457 1455 1338 0
-1457 1455 1386 0
-1457 1338 1386 0
1457 -1455 -1338 0
1457 -1455 -1386 0
1457 -1338 -1386 0
-1460 1457 1340 1387 0
-1460 1457 -1340 -1387 0
-1460 -1457 1340 -1387 0
1460 1457 1340 -1387 0
-1460 -1457 -1340 1387 0
1460 1457 -1340 1387 0
1460 -1457 1340 1387 0
1460 -1457 -1340 -1387 0
-1459 1457 1340 0
-1459 1457 1387 0
-1459 1340 1387 0
1459 -1457 -1340 0
1459 -1457 -1387 0
1459 -1340 -1387 0
-1462 1459 1342 1388 0
-1462 1459 -1342 -1388 0
-1462 -1459 1342 -1388 0
1462 1459 1342 -1388 0
-1462 -1459 -1342 1388 0
1462 1459 -1342 1388 0
1462 -1459 1342 1388 0
1462 -1459 -1342 -1388 0
-1461 1459 1342 0
-1461 1459 1388 0
-1461 1342 1388 0
1461 -1459 -1342 0
1461 -1459 -1388 0
1461 -1342 -1388 0
-1464 1461 1344 1389 0
-1464 1461 -1344 -1389 0
-1464 -1461 1344 -1389 0
1464 1461 1344 -1389 0
-1464 -1461 -1344 1389 0
1464 1461 -1344 1389 0
1464 -1461 1344 1389 0
1464 -1461 -1344 -1389 0
-1463 1461 1344 0
-1463 1461 1389 0
-1463 1344 1389 0
1463 -1461 -1344 0
1463 -1461 -1389 0
1463 -1344 -1389 0
-1466 1463 1346 1390 0
-1466 1463 -1346 -1390 0
-1466 -1463 1346 -1390 0
1466 1463 1346 -1390 0
-1466 -1463 -1346 1390 0
1466 1463 -1346 1390 0
1466 -1463 1346 1390 0
1466 -1463 -1346 -1390 0
-1465 1463 1346 0
-1465 1463 1390 0
-1465 1346 1390 0
1465 -1463 -1346 0
1465 -1463 -1390 0
1465 -1346 -1390 0
-1468 1465 1348 1391 0
-1468 1465 -1348 -1391 0
-1468 -1465 1348 -1391 0
1468 1465 1348 -1391 0
-1468 -1465 -1348 1391 0
1468 1465 -1348 1391 0
1468 -1465 1348 1391 0
1468 -1465 -1348 -1391 0
-1467 1465 1348 0
-1467 1465 1391 0
-1467 1348 1391 0
1467 -1465 -1348 0
1467 -1465 -1391 0
1467 -1348 -1391 0
-1470 1467 1350 1392 0
-1470 1467 -1350 -1392 0
-1470 -1467 1350 -1392 0
1470 1467 1350 -1392 0
-1470 -1467 -1350 1392 0
1470 1467 -1350 1392 0
1470 -1467 1350 1392 0
1470 -1467 -1350 -1392 0
-1469 1467 1350 0
-1469 1467 1392 0
-1469 1350 1392 0
1469 -1467 -1350 0
1469 -1467 -1392 0
1469 -1350 -1392 0
-1472 1469 1352 1393 0
-1472 1469 -1352 -1393 0
-1472 -1469 1352 -1393 0
1472 1469 1352 -1393 0
-1472 -1469 -1352 1393 0
1472 1469 -1352 1393 0
1472 -1469 1352 1393 0
1472 -1469 -1352 -1393 0
-1471 1469 1352 0
-1471 1469 1393 0
-1471 1352 1393 0
1471 -1469 -1352 0
1471 -1469 -1393 0
1471 -1352 -1393 0
-1474 1471 1354 1394 0
-1474 1471 -1354 -1394 0
-1474 -1471 1354 -1394 0
1474 1471 1354 -1394 0
-1474 -1471 -1354 1394 0
1474 1471 -1354 1394 0
1474 -1471 1354 1394 0
1474 -1471 -1354 -1394 0
-1473 1471 1354 0
-1473 1471 1394 0
-1473 1354 1394 0
1473 -1471 -1354 0
1473 -1471 -1394 0
1473 -1354 -1394 0
-1476 1473 1356 1395 0
-1476 1473 -1356 -1395 0
-1476 -1473 1356 -1395 0
1476 1473 1356 -1395 0
-1476 -1473 -1356 1395 0
1476 1473 -1356 1395 0
1476 -1473 1356 1395 0
1476 -1473 -1356 -1395 0
-1475 1473 1356 0
-1475 1473 1395 0
-1475 1356 1395 0
1475 -1473 -1356 0
1475 -1473 -1395 0
1475 -1356 -1395 0
-1478 1475 1358 1396 0
-1478 1475 -1358 -1396 0
-1478 -1475 1358 -1396 0
1478 1475 1358 -1396 0
-1478 -1475 -1358 1396 0
1478 1475 -1358 1396 0
1478 -1475 1358 1396 0
1478 -1475 -1358 -1396 0
-1477 1475 1358 0
-1477 1475 1396 0
-1477 1358 1396 0
1477 -1475 -1358 0
1477 -1475 -1396 0
1477 -1358 -1396 0
-1480 1477 1360 1397 0
-1480 1477 -1360 -1397 0
-1480 -1477 1360 -1397 0
1480 1477 1360 -1397 0
-1480 -1477 -1360 1397 0
1480 1477 -1360 1397 0
1480 -1477 1360 1397 0
1480 -1477 -1360 -1397 0
-1479 1477 1360 0
-1479 1477 1397 0
-1479 1360 1397 0
1479 -1477 -1360 0
1479 -1477 -1397 0
1479 -1360 -1397 0
-1482 1479 1362 1398 0
-1482 1479 -1362 -1398 0
-1482 -1479 1362 -1398 0
1482 1479 1362 -1398 0
-1482 -1479 -1362 1398 0
1482 1479 -1362 1398 0
1482 -1479 1362 1398 0
1482 -1479 -1362 -1398 0
-1481 1479 1362 0
-1481 1479 1398 0
-1481 1362 1398 0
1481 -1479 -1362 0
1481 -1479 -1398 0
1481 -1362 -1398 0
-1484 1481 1364 1399 0
-1484 1481 -1364 -1399 0
-1484 -1481 1364 -1399 0
1484 1481 1364 -1399 0
-1484 -1481 -1364 1399 0
1484 1481 -1364 1399 0
1484 -1481 1364 1399 0
1484 -1481 -1364 -1399 0
-1483 1481 1364 0
-1483 1481 1399 0
-1483 1364 1399 0
1483 -1481 -1364 0
1483 -1481 -1399 0
1483 -1364 -1399 0
-1486 1483 1366 1400 0
-1486 1483 -1366 -1400 0
-1486 -1483 1366 -1400 0
1486 1483 1366 -1400 0
-1486 -1483 -1366 1400 0
1486 1483 -1366 1400 0
1486 -1483 1366 1400 0
1486 -1483 -1366 -1400 0
-1485 1483 1366 0
-1485 1483 1400 0
-1485 1366 1400 0
1485 -1483 -1366 0
1485 -1483 -1400 0
1485 -1366 -1400 0
-1488 1485 1368 1401 0
-1488 1485 -1368 -1401 0
-1488 -1485 1368 -1401 0
1488 1485 1368 -1401 0
-1488 -1485 -1368 1401 0
1488 1485 -1368 1401 0
1488 -1485 1368 1401 0
1488 -1485 -1368 -1401 0
-1487 1485 1368 0
-1487 1485 1401 0
-1487 1368 1401 0
1487 -1485 -1368 0
1487 -1485 -1401 0
1487 -1368 -1401 0
-1490 1487 1370 1402 0
-1490 1487 -1370 -1402 0
-1490 -1487 1370 -1402 0
1490 1487 1370 -1402 0
-1490 -1487 -1370 1402 0
1490 1487 -1370 1402 0
1490 -1487 1370 1402 0
1490 -1487 -1370 -1402 0
-1489 1487 1370 0
-1489 1487 1402 0
-1489 1370 1402 0
1489 -1487 -1370 0
1489 -1487 -1402 0
1489 -1370 -1402 0
-1492 1489 1372 1403 0
-1492 1489 -1372 -1403 0
-1492 -1489 1372 -1403 0
1492 1489 1372 -1403 0
-1492 -1489 -1372 1403 0
1492 1489 -1372 1403 0
1492 -1489 1372 1403 0
1492 -1489 -1372 -1403 0
-1491 1489 1372 0
-1491 1489 1403 0
-1491 1372 1403 0
1491 -1489 -1372 0
1491 -1489 -1403 0
1491 -1372 -1403 0
-1494 1491 1371 1404 0
-1494 1491 -1371 -1404 0
-1494 -1491 1371 -1404 0
1494 1491 1371 -1404 0
-1494 -1491 -1371 1404 0
1494 1491 -1371 1404 0
1494 -1491 1371 1404 0
1494 -1491 -1371 -1404 0
-1493 1491 1371 0
-1493 1491 1404 0
-1493 1371 1404 0
1493 -1491 -1371 0
1493 -1491 -1404 0
1493 -1371 -1404 0
-1495 1 0
-1495 15 0
1495 -1 -15 0
-1496 2 0
-1496 15 0
1496 -2 -15 0
-1497 3 0
-1497 15 0
1497 -3 -15 0
-1498 4 0
-1498 15 0
1498 -4 -15 0
-1499 5 0
-1499 15 0
1499 -5 -15 0
-1500 6 0
-1500 15 0
1500 -6 -15 0
-1501 7 0
-1501 15 0
1501 -7 -15 0
-1502 8 0
-1502 15 0
1502 -8 -15 0
-1503 9 0
-1503 15 0
1503 -9 -15 0
-1504 10 0
-1504 15 0
1504 -10 -15 0
-1505 11 0
-1505 15 0
1505 -11 -15 0
-1506 12 0
-1506 15 0
1506 -12 -15 0
-1507 13 0
-1507 15 0
1507 -13 -15 0
-1508 14 0
-1508 15 0
1508 -14 -15 0
-1509 15 0
1509 -15 0
-1510 16 0
-1510 15 0
1510 -16 -15 0
-1511 17 0
-1511 15 0
1511 -17 -15 0
-1512 18 0
-1512 15 0
1512 -18 -15 0
-1513 19 0
-1513 15 0
1513 -19 -15 0
-1514 20 0
-1514 15 0
1514 -20 -15 0
-1515 21 0
-1515 15 0
1515 -21 -15 0
-1516 22 0
-1516 15 0
1516 -22 -15 0
-1517 23 0
-1517 15 0
1517 -23 -15 0
-1518 24 0
-1518 15 0
1518 -24 -15 0
-1519 25 0
-1519 15 0
1519 -25 -15 0
-1520 26 0
-1520 15 0
1520 -26 -15 0
-1521 27 0
-1521 15 0
1521 -27 -15 0
-1522 28 0
-1522 15 0
1522 -28 -15 0
-1523 29 0
-1523 15 0
1523 -29 -15 0
-1524 30 0
-1524 15 0
1524 -30 -15 0
-1525 31 0
-1525 15 0
1525 -31 -15 0
-1526 32 0
-1526 15 0
1526 -32 -15 0
-1406 1528 0
1406 -1528 0
-1527 0
1408 1527 -1530 0
-1408 -1527 -1530 0
-1408 1527 1530 0
1408 -1527 1530 0
-1529 1527 0
-1529 1408 0
1529 -1527 -1408 0
1410 1529 -1532 0
-1410 -1529 -1532 0
-1410 1529 1532 0
1410 -1529 1532 0
-1531 1529 0
-1531 1410 0
1531 -1529 -1410 0
1412 1531 -1534 0
-1412 -1531 -1534 0
-1412 1531 1534 0
1412 -1531 1534 0
-1533 1531 0
-1533 1412 0
1533 -1531 -1412 0
1414 1533 -1536 0
-1414 -1533 -1536 0
-1414 1533 1536 0
1414 -1533 1536 0
-1535 1533 0
-1535 1414 0
1535 -1533 -1414 0
1416 1535 -1538 0
-1416 -1535 -1538 0
-1416 1535 1538 0
1416 -1535 1538 0
-1537 1535 0
-1537 1416 0
1537 -1535 -1416 0
1418 1537 -1540 0
-1418 -1537 -1540 0
-1418 1537 1540 0
1418 -1537 1540 0
-1539 1537 0
-1539 1418 0
1539 -1537 -1418 0
1420 1539 -1542 0
-1420 -1539 -1542 0
-1420 1539 1542 0
1420 -1539 1542 0
-1541 1539 0
-1541 1420 0
1541 -1539 -1420 0
1422 1541 -1544 0
-1422 -1541 -1544 0
-1422 1541 1544 0
1422 -1541 1544 0
-1543 1541 0
-1543 1422 0
1543 -1541 -1422 0
1424 1543 -1546 0
-1424 -1543 -1546 0
-1424 1543 1546 0
1424 -1543 1546 0
-1545 1543 0
-1545 1424 0
1545 -1543 -1424 0
1426 1545 -1548 0
-1426 -1545 -1548 0
-1426 1545 1548 0
1426 -1545 1548 0
-1547 1545 0
-1547 1426 0
1547 -1545 -1426 0
1428 1547 -1550 0
-1428 -1547 -1550 0
-1428 1547 1550 0
1428 -1547 1550 0
-1549 1547 0
-1549 1428 0
1549 -1547 -1428 0
1430 1549 -1552 0
-1430 -1549 -1552 0
-1430 1549 1552 0
1430 -1549 1552 0
-1551 1549 0
-1551 1430 0
1551 -1549 -1430 0
1432 1551 -1554 0
-1432 -1551 -1554 0
-1432 1551 1554 0
1432 -1551 1554 0
-1553 1551 0
-1553 1432 0
1553 -1551 -1432 0
-1556 1553 1434 1495 0
-1556 1553 -1434 -1495 0
-1556 -1553 1434 -1495 0
1556 1553 1434 -1495 0
-1556 -1553 -1434 1495 0
1556 1553 -1434 1495 0
1556 -1553 1434 1495 0
1556 -1553 -1434 -1495 0
-1555 1553 1434 0
-1555 1553 1495 0
-1555 1434 1495 0
1555 -1553 -1434 0
1555 -1553 -1495 0
1555 -1434 -1495 0
-1558 1555 1436 1496 0
-1558 1555 -1436 -1496 0
-1558 -1555 1436 -1496 0
1558 1555 1436 -1496 0
-1558 -1555 -1436 1496 0
1558 1555 -1436 1496 0
1558 -1555 1436 1496 0
1558 -1555 -1436 -1496 0
-1557 1555 1436 0
-1557 1555 1496 0
-1557 1436 1496 0
1557 -1555 -1436 0
1557 -1555 -1496 0
1557 -1436 -1496 0
-1560 1557 1438 1497 0
-1560 1557 -1438 -1497 0
-1560 -1557 1438 -1497 0
1560 1557 1438 -1497 0
-1560 -1557 -1438 1497 0
1560 1557 -1438 1497 0
1560 -1557 1438 1497 0
1560 -1557 -1438 -1497 0
-1559 1557 1438 0
-1559 1557 1497 0
-1559 1438 1497 0
1559 -1557 -1438 0
1559 -1557 -1497 0
1559 -1438 -1497 0
-1562 1559 1440 1498 0
-1562 1559 -1440 -1498 0
-1562 -1559 1440 -1498 0
1562 1559 1440 -1498 0
-1562 -1559 -1440 1498 0
1562 1559 -1440 1498 0
1562 -1559 1440 1498 0
1562 -1559 -1440 -1498 0
-1561 1559 1440 0
-1561 1559 1498 0
-1561 1440 1498 0
1561 -1559 -1440 0
1561 -1559 -1498 0
1561 -1440 -1498 0
-1564 1561 1442 1499 0
-1564 1561 -1442 -1499 0
-1564 -1561 1442 -1499 0
1564 1561 1442 -1499 0
-1564 -1561 -1442 1499 0
1564 1561 -1442 1499 0
1564 -1561 1442 1499 0
1564 -1561 -1442 -1499 0
-1563 1561 1442 0
-1563 1561 1499 0
-1563 1442 1499 0
1563 -1561 -1442 0
1563 -1561 -1499 0
1563 -1442 -1499 0
-1566 1563 1444 1500 0
-1566 1563 -1444 -1500 0
-1566 -1563 1444 -1500 0
1566 1563 1444 -1500 0
-1566 -1563 -1444 1500 0
1566 1563 -1444 1500 0
1566 -1563 1444 1500 0
1566 -1563 -1444 -1500 0
-1565 1563 1444 0
-1565 1563 1500 0
-1565 1444 1500 0
1565 -1563 -1444 0
1565 -1563 -1500 0
1565 -1444 -1500 0
-1568 1565 1446 1501 0
-1568 1565 -1446 -1501 0
-1568 -1565 1446 -1501 0
1568 1565 1446 -1501 0
-1568 -1565 -1446 1501 0
1568 1565 -1446 1501 0
1568 -1565 1446 1501 0
1568 -1565 -1446 -1501 0
-1567 1565 1446 0
-1567 1565 1501 0
-1567 1446 1501 0
1567 -1565 -1446 0
1567 -1565 -1501 0
1567 -1446 -1501 0
-1570 1567 1448 1502 0
-1570 1567 -1448 -1502 0
-1570 -1567 1448 -1502 0
1570 1567 1448 -1502 0
-1570 -1567 -1448 1502 0
1570 1567 -1448 1502 0
1570 -1567 1448 1502 0
1570 -1567 -1448 -1502 0
-1569 1567 1448 0
-1569 1567 1502 0
-1569 1448 1502 0
1569 -1567 -1448 0
1569 -1567 -1502 0
1569 -1448 -1502 0
-1572 1569 1450 1503 0
-1572 1569 -1450 -1503 0
-1572 -1569 1450 -1503 0
1572 1569 1450 -1503 0
-1572 -1569 -1450 1503 0
1572 1569 -1450 1503 0
1572 -1569 1450 1503 0
1572 -1569 -1450 -1503 0
-1571 1569 1450 0
-1571 1569 1503 0
-1571 1450 1503 0
1571 -1569 -1450 0
1571 -1569 -1503 0
1571 -1450 -1503 0
-1574 1571 1452 1504 0
-1574 1571 -1452 -1504 0
-1574 -1571 1452 -1504 0
1574 1571 1452 -1504 0
-1574 -1571 -1452 1504 0
1574 1571 -1452 1504 0
1574 -1571 1452 1504 0
1574 -1571 -1452 -1504 0
-1573 1571 1452 0
-1573 1571 1504 0
-1573 1452 1504 0
1573 -1571 -1452 0
1573 -1571 -1504 0
1573 -1452 -1504 0
-1576 1573 1454 1505 0
-1576 1573 -1454 -1505 0
-1576 -1573 1454 -1505 0
1576 1573 1454 -1505 0
-1576 -1573 -1454 1505 0
1576 1573 -1454 1505 0
1576 -1573 1454 1505 0
1576 -1573 -1454 -1505 0
-1575 1573 1454 0
-1575 1573 1505 0
-1575 1454 1505 0
1575 -1573 -1454 0
1575 -1573 -1505 0
1575 -1454 -1505 0
-1578 1575 1456 1506 0
-1578 1575 -1456 -1506 0
-1578 -1575 1456 -1506 0
1578 1575 1456 -1506 0
-1578 -1575 -1456 1506 0
1578 1575 -1456 1506 0
1578 -1575 1456 1506 0
1578 -1575 -1456 -1506 0
-1577 1575 1456 0
-1577 1575 1506 0
-1577 1456 1506 0
1577 -1575 -1456 0
1577 -1575 -1506 0
1577 -1456 -1506 0
-1580 1577 1458 1507 0
-1580 1577 -1458 -1507 0
-1580 -1577 1458 -1507 0
1580 1577 1458 -1507 0
-1580 -1577 -1458 1507 0
1580 1577 -1458 1507 0
1580 -1577 1458 1507 0
1580 -1577 -1458 -1507 0
-1579 1577 1458 0
-1579 1577 1507 0
-1579 1458 1507 0
1579 -1577 -1458 0
1579 -1577 -1507 0
1579 -1458 -1507 0
-1582 1579 1460 1508 0
-1582 1579 -1460 -1508 0
-1582 -1579 1460 -1508 0
1582 1579 1460 -1508 0
-1582 -1579 -1460 1508 0
1582 1579 -1460 1508 0
1582 -1579 1460 1508 0
1582 -1579 -1460 -1508 0
-1581 1579 1460 0
-1581 1579 1508 0
-1581 1460 1508 0
1581 -1579 -1460 0
1581 -1579 -1508 0
1581 -1460 -1508 0
-1584 1581 1462 1509 0
-1584 1581 -1462 -1509 0
-1584 -1581 1462 -1509 0
1584 1581 1462 -1509 0
-1584 -1581 -1462 1509 0
1584 1581 -1462 1509 0
1584 -1581 1462 1509 0
1584 -1581 -1462 -1509 0
-1583 1581 1462 0
-1583 1581 1509 0
-1583 1462 1509 0
1583 -1581 -1462 0
1583 -1581 -1509 0
1583 -1462 -1509 0
-1586 1583 1464 1510 0
-1586 1583 -1464 -1510 0
-1586 -1583 1464 -1510 0
1586 1583 1464 -1510 0
-1586 -1583 -1464 1510 0
1586 1583 -1464 1510 0
1586 -1583 1464 1510 0
1586 -1583 -1464 -1510 0
-1585 1583 1464 0
-1585 1583 1510 0
-1585 1464 1510 0
1585 -1583 -1464 0
1585 -1583 -1510 0
1585 -1464 -1510 0
-1588 1585 1466 1511 0
-1588 1585 -1466 -1511 0
-1588 -1585 1466 -1511 0
1588 1585 1466 -1511 0
-1588 -1585 -1466 1511 0
1588 1585 -1466 1511 0
1588 -1585 1466 1511 0
1588 -1585 -1466 -1511 0
-1587 1585 1466 0
-1587 1585 1511 0
-1587 1466 1511 0
1587 -1585 -1466 0
1587 -1585 -1511 0
1587 -1466 -1511 0
-1590 1587 1468 1512 0
-1590 1587 -1468 -1512 0
-1590 -1587 1468 -1512 0
1590 1587 1468 -1512 0
-1590 -1587 -1468 1512 0
1590 1587 -1468 1512 0
1590 -1587 1468 1512 0
1590 -1587 -1468 -1512 0
-1589 1587 1468 0
-1589 1587 1512 0
-1589 1468 1512 0
1589 -1587 -1468 0
1589 -1587 -1512 0
1589 -1468 -1512 0
-1592 1589 1470 1513 0
-1592 1589 -1470 -1513 0
-1592 -1589 1470 -1513 0
1592 1589 1470 -1513 0
-1592 -1589 -1470 1513 0
1592 1589 -1470 1513 0
1592 -1589 1470 1513 0
1592 -1589 -1470 -1513 0
-1591 1589 1470 0
-1591 1589 1513 0
-1591 1470 1513 0
1591 -1589 -1470 0
1591 -1589 -1513 0
1591 -1470 -1513 0
-1594 1591 1472 1514 0
-1594 1591 -1472 -1514 0
-1594 -1591 1472 -1514 0
1594 1591 1472 -1514 0
-1594 -1591 -1472 1514 0
1594 1591 -1472 1514 0
1594 -1591 1472 1514 0
1594 -1591 -1472 -1514 0
-1593 1591 1472 0
-1593 1591 1514 0
-1593 1472 1514 0
1593 -1591 -1472 0
1593 -1591 -1514 0
1593 -1472 -1514 0
-1596 1593 1474 1515 0
-1596 1593 -1474 -1515 0
-1596 -1593 1474 -1515 0
1596 1593 1474 -1515 0
-1596 -1593 -1474 1515 0
1596 1593 -1474 1515 0
1596 -1593 1474 1515 0
1596 -1593 -1474 -1515 0
-1595 1593 1474 0
-1595 1593 1515 0
-1595 1474 1515 0
1595 -1593 -1474 0
1595 -1593 -1515 0
1595 -1474 -1515 0
-1598 1595 1476 1516 0
-1598 1595 -1476 -1516 0
-1598 -1595 1476 -1516 0
1598 1595 1476 -1516 0
-1598 -1595 -1476 1516 0
1598 1595 -1476 1516 0
1598 -1595 1476 1516 0
1598 -1595 -1476 -1516 0
-1597 1595 1476 0
-1597 1595 1516 0
-1597 1476 1516 0
1597 -1595 -1476 0
1597 -1595 -1516 0
1597 -1476 -1516 0
-1600 1597 1478 1517 0
-1600 1597 -1478 -1517 0
-1600 -1597 1478 -1517 0
1600 1597 1478 -1517 0
-1600 -1597 -1478 1517 0
1600 1597 -1478 1517 0
1600 -1597 1478 1517 0
1600 -1597 -1478 -1517 0
-1599 1597 1478 0
-1599 1597 1517 0
-1599 1478 1517 0
1599 -1597 -1478 0
1599 -1597 -1517 0
1599 -1478 -1517 0
-1602 1599 1480 1518 0
-1602 1599 -1480 -1518 0
-1602 -1599 1480 -1518 0
1602 1599 1480 -1518 0
-1602 -1599 -1480 1518 0
1602 1599 -1480 1518 0
1602 -1599 1480 1518 0
1602 -1599 -1480 -1518 0
-1601 1599 1480 0
-1601 1599 1518 0
-1601 1480 1518 0
1601 -1599 -1480 0
1601 -1599 -1518 0
1601 -1480 -1518 0
-1604 1601 1482 1519 0
-1604 1601 -1482 -1519 0
-1604 -1601 1482 -1519 0
1604 1601 1482 -1519 0
-1604 -1601 -1482 1519 0
1604 1601 -1482 1519 0
1604 -1601 1482 1519 0
1604 -1601 -1482 -1519 0
-1603 1601 1482 0
-1603 1601 1519 0
-1603 1482 1519 0
1603 -1601 -1482 0
1603 -1601 -1519 0
1603 -1482 -1519 0
-1606 1603 1484 1520 0
-1606 1603 -1484 -1520 0
-1606 -1603 1484 -1520 0
1606 1603 1484 -1520 0
-1606 -1603 -1484 1520 0
1606 1603 -1484 1520 0
1606 -1603 1484 1520 0
1606 -1603 -1484 -1520 0
-1605 1603 1484 0
-1605 1603 1520 0
-1605 1484 1520 0
1605 -1603 -1484 0
1605 -1603 -1520 0
1605 -1484 -1520 0
-1608 1605 1486 1521 0
-1608 1605 -1486 -1521 0
-1608 -1605 1486 -1521 0
1608 1605 1486 -1521 0
-1608 -1605 -1486 1521 0
1608 1605 -1486 1521 0
1608 -1605 1486 1521 0
1608 -1605 -1486 -1521 0
-1607 1605 1486 0
-1607 1605 1521 0
-1607 1486 1521 0
1607 -1605 -1486 0
1607 -1605 -1521 0
1607 -1486 -1521 0
-1610 1607 1488 1522 0
-1610 1607 -1488 -1522 0
-1610 -1607 1488 -1522 0
1610 1607 1488 -1522 0
-1610 -1607 -1488 1522 0
1610 1607 -1488 1522 0
1610 -1607 1488 1522 0
1610 -1607 -1488 -1522 0
-1609 1607 1488 0
-1609 1607 1522 0
-1609 1488 1522 0
1609 -1607 -1488 0
1609 -1607 -1522 0
1609 -1488 -1522 0
-1612 1609 1490 1523 0
-1612 1609 -1490 -1523 0
-1612 -1609 1490 -1523 0
1612 1609 1490 -1523 0
-1612 -1609 -1490 1523 0
1612 1609 -1490 1523 0
1612 -1609 1490 1523 0
1612 -1609 -1490 -1523 0
-1611 1609 1490 0
-1611 1609 1523 0
-1611 1490 1523 0
1611 -1609 -1490 0
1611 -1609 -1523 0
1611 -1490 -1523 0
-1614 1611 1492 1524 0
-1614 1611 -1492 -1524 0
-1614 -1611 1492 -1524 0
1614 1611 1492 -1524 0
-1614 -1611 -1492 1524 0
1614 1611 -1492 1524 0
1614 -1611 1492 1524 0
1614 -1611 -1492 -1524 0
-1613 1611 1492 0
-1613 1611 1524 0
-1613 1492 1524 0
1613 -1611 -1492 0
1613 -1611 -1524 0
1613 -1492 -1524 0
-1616 1613 1494 1525 0
-1616 1613 -1494 -1525 0
-1616 -1613 1494 -1525 0
1616 1613 1494 -1525 0
-1616 -1613 -1494 1525 0
1616 1613 -1494 1525 0
1616 -1613 1494 1525 0
1616 -1613 -1494 -1525 0
-1615 1613 1494 0
-1615 1613 1525 0
-1615 1494 1525 0
1615 -1613 -1494 0
1615 -1613 -1525 0
1615 -1494 -1525 0
-1618 1615 1493 1526 0
-1618 1615 -1493 -1526 0
-1618 -1615 1493 -1526 0
1618 1615 1493 -1526 0
-1618 -1615 -1493 1526 0
1618 1615 -1493 1526 0
1618 -1615 1493 1526 0
1618 -1615 -1493 -1526 0
-1617 1615 1493 0
-1617 1615 1526 0
-1617 1493 1526 0
1617 -1615 -1493 0
1617 -1615 -1526 0
1617 -1493 -1526 0
-1619 1 0
-1619 16 0
1619 -1 -16 0
-1620 2 0
-1620 16 0
1620 -2 -16 0
-1621 3 0
-1621 16 0
1621 -3 -16 0
-1622 4 0
-1622 16 0
1622 -4 -16 0
-1623 5 0
-1623 16 0
1623 -5 -16 0
-1624 6 0
-1624 16 0
1624 -6 -16 0
-1625 7 0
-1625 16 0
1625 -7 -16 0
-1626 8 0
-1626 16 0
1626 -8 -16 0
-1627 9 0
-1627 16 0
1627 -9 -16 0
-1628 10 0
-1628 16 0
1628 -10 -16 0
-1629 11 0
-1629 16 0
1629 -11 -16 0
-1630 12 0
-1630 16 0
1630 -12 -16 0
-1631 13 0
-1631 16 0
1631 -13 -16 0
-1632 14 0
-1632 16 0
1632 -14 -16 0
-1633 15 0
-1633 16 0
1633 -15 -16 0
-1634 16 0
1634 -16 0
-1635 17 0
-1635 16 0
1635 -17 -16 0
-1636 18 0
-1636 16 0
1636 -18 -16 0
-1637 19 0
-1637 16 0
1637 -19 -16 0
-1638 20 0
-1638 16 0
1638 -20 -16 0
-1639 21 0
-1639 16 0
1639 -21 -16 0
-1640 22 0
-1640 16 0
1640 -22 -16 0
-1641 23 0
-1641 16 0
1641 -23 -16 0
-1642 24 0
-1642 16 0
1642 -24 -16 0
-1643 25 0
-1643 16 0
1643 -25 -16 0
-1644 26 0
-1644 16 0
1644 -26 -16 0
-1645 27 0
-1645 16 0
1645 -27 -16 0
-1646 28 0
-1646 16 0
1646 -28 -16 0
-1647 29 0
-1647 16 0
1647 -29 -16 0
-1648 30 0
-1648 16 0
1648 -30 -16 0
-1649 31 0
-1649 16 0
1649 -31 -16 0
-1650 32 0
-1650 16 0
1650 -32 -16 0
-1528 1652 0
1528 -1652 0
-1651 0
1530 1651 -1654 0
-1530 -1651 -1654 0
-1530 1651 1654 0
1530 -1651 1654 0
-1653 1651 0
-1653 1530 0
1653 -1651 -1530 0
1532 1653 -1656 0
-1532 -1653 -1656 0
-1532 1653 1656 0
1532 -1653 1656 0
-1655 1653 0
-1655 1532 0
1655 -1653 -1532 0
1534 1655 -1658 0
-1534 -1655 -1658 0
-1534 1655 1658 0
1534 -1655 1658 0
-1657 1655 0
-1657 1534 0
1657 -1655 -1534 0
1536 1657 -1660 0
-1536 -1657 -1660 0
-1536 1657 1660 0
1536 -1657 1660 0
-1659 1657 0
-1659 1536 0
1659 -1657 -1536 0
1538 1659 -1662 0
-1538 -1659 -1662 0
-1538 1659 1662 0
1538 -1659 1662 0
-1661 1659 0
-1661 1538 0
1661 -1659 -1538 0
1540 1661 -1664 0
-1540 -1661 -1664 0
-1540 1661 1664 0
1540 -1661 1664 0
-1663 1661 0
-1663 1540 0
1663 -1661 -1540 0
1542 1663 -1666 0
-1542 -1663 -1666 0
-1542 1663 1666 0
1542 -1663 1666 0
-1665 1663 0
-1665 1542 0
1665 -1663 -1542 0
1544 1665 -1668 0
-1544 -1665 -1668 0
-1544 1665 1668 0
1544 -1665 1668 0
-1667 1665 0
-1667 1544 0
1667 -1665 -1544 0
1546 1667 -1670 0
-1546 -1667 -1670 0
-1546 1667 1670 0
1546 -1667 1670 0
-1669 1667 0
-1669 1546 0
1669 -1667 -1546 0
1548 1669 -1672 0
-1548 -1669 -1672 0
-1548 1669 1672 0
1548 -1669 1672 0
-1671 1669 0
-1671 1548 0
1671 -1669 -1548 0
1550 1671 -1674 0
-1550 -1671 -1674 0
-1550 1671 1674 0
1550 -1671 1674 0
-1673 1671 0
-1673 1550 0
1673 -1671 -1550 0
1552 1673 -1676 0
-1552 -1673 -1676 0
-1552 1673 1676 0
1552 -1673 1676 0
-1675 1673 0
-1675 1552 0
1675 -1673 -1552 0
1554 1675 -1678 0
-1554 -1675 -1678 0
-1554 1675 1678 0
1554 -1675 1678 0
-1677 1675 0
-1677 1554 0
1677 -1675 -1554 0
1556 1677 -1680 0
-1556 -1677 -1680 0
-1556 1677 1680 0
1556 -1677 1680 0
-1679 1677 0
-1679 1556 0
1679 -1677 -1556 0
-1682 1679 1558 1619 0
-1682 1679 -1558 -1619 0
-1682 -1679 1558 -1619 0
1682 1679 1558 -1619 0
-1682 -1679 -1558 1619 0
1682 1679 -1558 1619 0
1682 -1679 1558 1619 0
1682 -1679 -1558 -1619 0
-1681 1679 1558 0
-1681 1679 1619 0
-1681 1558 1619 0
1681 -1679 -1558 0
1681 -1679 -1619 0
1681 -1558 -1619 0
-1684 1681 1560 1620 0
-1684 1681 -1560 -1620 0
-1684 -1681 1560 -1620 0
1684 1681 1560 -1620 0
-1684 -1681 -1560 1620 0
1684 1681 -1560 1620 0
1684 -1681 1560 1620 0
1684 -1681 -1560 -1620 0
-1683 1681 1560 0
-1683 1681 1620 0
-1683 1560 1620 0
1683 -1681 -1560 0
1683 -1681 -1620 0
1683 -1560 -1620 0
-1686 1683 1562 1621 0
-1686 1683 -1562 -1621 0
-1686 -1683 1562 -1621 0
1686 1683 1562 -1621 0
-1686 -1683 -1562 1621 0
1686 1683 -1562 1621 0
1686 -1683 1562 1621 0
1686 -1683 -1562 -1621 0
-1685 1683 1562 0
-1685 1683 1621 0
-1685 1562 1621 0
1685 -1683 -1562 0
1685 -1683 -1621 0
1685 -1562 -1621 0
-1688 1685 1564 1622 0
-1688 1685 -1564 -1622 0
-1688 -1685 1564 -1622 0
1688 1685 1564 -1622 0
-1688 -1685 -1564 1622 0
1688 1685 -1564 1622 0
1688 -1685 1564 1622 0
1688 -1685 -1564 -1622 0
-1687 1685 1564 0
-1687 1685 1622 0
-1687 1564 1622 0
1687 -1685 -1564 0
1687 -1685 -1622 0
1687 -1564 -1622 0
-1690 1687 1566 1623 0
-1690 1687 -1566 -1623 0
-1690 -1687 1566 -1623 0
1690 1687 1566 -1623 0
-1690 -1687 -1566 1623 0
1690 1687 -1566 1623 0
1690 -1687 1566 1623 0
1690 -1687 -1566 -1623 0
-1689 1687 1566 0
-1689 1687 1623 0
-1689 1566 1623 0
1689 -1687 -1566 0
1689 -1687 -1623 0
1689 -1566 -1623 0
-1692 1689 1568 1624 0
-1692 1689 -1568 -1624 0
-1692 -1689 1568 -1624 0
1692 1689 1568 -1624 0
-1692 -1689 -1568 1624 0
1692 1689 -1568 1624 0
1692 -1689 1568 1624 0
1692 -1689 -1568 -1624 0
-1691 1689 1568 0
-1691 1689 1624 0
-1691 1568 1624 0
1691 -1689 -1568 0
1691 -1689 -1624 0
1691 -1568 -1624 0
-1694 1691 1570 1625 0
-1694 1691 -1570 -1625 0
-1694 -1691 1570 -1625 0
1694 1691 1570 -1625 0
-1694 -1691 -1570 1625 0
1694 1691 -1570 1625 0
1694 -1691 1570 1625 0
1694 -1691 -1570 -1625 0
-1693 1691 1570 0
-1693 1691 1625 0
-1693 1570 1625 0
1693 -1691 -1570 0
1693 -1691 -1625 0
1693 -1570 -1625 0
-1696 1693 1572 1626 0
-1696 1693 -1572 -1626 0
-1696 -1693 1572 -1626 0
1696 1693 1572 -1626 0
-1696 -1693 -1572 1626 0
1696 1693 -1572 1626 0
1696 -1693 1572 1626 0
1696 -1693 -1572 -1626 0
-1695 1693 1572 0
-1695 1693 1626 0
-1695 1572 1626 0
1695 -1693 -1572 0
1695 -1693 -1626 0
1695 -1572 -1626 0
-1698 1695 1574 1627 0
-1698 1695 -1574 -1627 0
-1698 -1695 1574 -1627 0
1698 1695 1574 -1627 0
-1698 -1695 -1574 1627 0
1698 1695 -1574 1627 0
1698 -1695 1574 1627 0
1698 -1695 -1574 -1627 0
-1697 1695 1574 0
-1697 1695 1627 0
-1697 1574 1627 0
1697 -1695 -1574 0
1697 -1695 -1627 0
1697 -1574 -1627 0
-1700 1697 1576 1628 0
-1700 1697 -1576 -1628 0
-1700 -1697 1576 -1628 0
1700 1697 1576 -1628 0
-1700 -1697 -1576 1628 0
1700 1697 -1576 1628 0
1700 -1697 1576 1628 0
1700 -1697 -1576 -1628 0
-1699 1697 1576 0
-1699 1697 1628 0
-1699 1576 1628 0
1699 -1697 -1576 0
1699 -1697 -1628 0
1699 -1576 -1628 0
-1702 1699 1578 1629 0
-1702 1699 -1578 -1629 0
-1702 -1699 1578 -1629 0
1702 1699 1578 -1629 0
-1702 -1699 -1578 1629 0
1702 1699 -1578 1629 0
1702 -1699 1578 1629 0
1702 -1699 -1578 -1629 0
-1701 1699 1578 0
-1701 1699 1629 0
-1701 1578 1629 0
1701 -1699 -1578 0
1701 -1699 -1629 0
1701 -1578 -1629 0
-1704 1701 1580 1630 0
-1704 1701 -1580 -1630 0
-1704 -1701 1580 -1630 0
1704 1701 1580 -1630 0
-1704 -1701 -1580 1630 0
1704 1701 -1580 1630 0
1704 -1701 1580 1630 0
1704 -1701 -1580 -1630 0
-1703 1701 1580 0
-1703 1701 1630 0
-1703 1580 1630 0
1703 -1701 -1580 0
1703 -1701 -1630 0
1703 -1580 -1630 0
-1706 1703 1582 1631 0
-1706 1703 -1582 -1631 0
-1706 -1703 1582 -1631 0
1706 1703 1582 -1631 0
-1706 -1703 -1582 1631 0
1706 1703 -1582 1631 0
1706 -1703 1582 1631 0
1706 -1703 -1582 -1631 0
-1705 1703 1582 0
-1705 1703 1631 0
-1705 1582 1631 0
1705 -1703 -1582 0
1705 -1703 -1631 0
1705 -1582 -1631 0
-1708 1705 1584 1632 0
-1708 1705 -1584 -1632 0
-1708 -1705 1584 -1632 0
1708 1705 1584 -1632 0
-1708 -1705 -1584 1632 0
1708 1705 -1584 1632 0
1708 -1705 1584 1632 0
1708 -1705 -1584 -1632 0
-1707 1705 1584 0
-1707 1705 1632 0
-1707 1584 1632 0
1707 -1705 -1584 0
1707 -1705 -1632 0
1707 -1584 -1632 0
-1710 1707 1586 1633 0
-1710 1707 -1586 -1633 0
-1710 -1707 1586 -1633 0
1710 1707 1586 -1633 0
-1710 -1707 -1586 1633 0
1710 1707 -1586 1633 0
1710 -1707 1586 1633 0
1710 -1707 -1586 -1633 0
-1709 1707 1586 0
-1709 1707 1633 0
-1709 1586 1633 0
1709 -1707 -1586 0
1709 -1707 -1633 0
1709 -1586 -1633 0
-1712 1709 1588 1634 0
-1712 1709 -1588 -1634 0
-1712 -1709 1588 -1634 0
1712 1709 1588 -1634 0
-1712 -1709 -1588 1634 0
1712 1709 -1588 1634 0
1712 -1709 1588 1634 0
1712 -1709 -1588 -1634 0
-1711 1709 1588 0
-1711 1709 1634 0
-1711 1588 1634 0
1711 -1709 -1588 0
1711 -1709 -1634 0
1711 -1588 -1634 0
-1714 1711 1590 1635 0
-1714 1711 -1590 -1635 0
-1714 -1711 1590 -1635 0
1714 1711 1590 -1635 0
-1714 -1711 -1590 1635 0
1714 1711 -1590 1635 0
1714 -1711 1590 1635 0
1714 -1711 -1590 -1635 0
-1713 1711 1590 0
-1713 1711 1635 0
-1713 1590 1635 0
1713 -1711 -1590 0
1713 -1711 -1635 0
1713 -1590 -1635 0
-1716 1713 1592 1636 0
-1716 1713 -1592 -1636 0
-1716 -1713 1592 -1636 0
1716 1713 1592 -1636 0
-1716 -1713 -1592 1636 0
1716 1713 -1592 1636 0
1716 -1713 1592 1636 0
1716 -1713 -1592 -1636 0
-1715 1713 1592 0
-1715 1713 1636 0
-1715 1592 1636 0
1715 -1713 -1592 0
1715 -1713 -1636 0
1715 -1592 -1636 0
-1718 1715 1594 1637 0
-1718 1715 -1594 -1637 0
-1718 -1715 1594 -1637 0
1718 1715 1594 -1637 0
-1718 -1715 -1594 1637 0
1718 1715 -1594 1637 0
1718 -1715 1594 1637 0
1718 -1715 -1594 -1637 0
-1717 1715 1594 0
-1717 1715 1637 0
-1717 1594 1637 0
1717 -1715 -1594 0
1717 -1715 -1637 0
1717 -1594 -1637 0
-1720 1717 1596 1638 0
-1720 1717 -1596 -1638 0
-1720 -1717 1596 -1638 0
1720 1717 1596 -1638 0
-1720 -1717 -1596 1638 0
1720 1717 -1596 1638 0
1720 -1717 1596 1638 0
1720 -1717 -1596 -1638 0
-1719 1717 1596 0
-1719 1717 1638 0
-1719 1596 1638 0
1719 -1717 -1596 0
1719 -1717 -1638 0
1719 -1596 -1638 0
-1722 1719 1598 1639 0
-1722 1719 -1598 -1639 0
-1722 -1719 1598 -1639 0
1722 1719 1598 -1639 0
-1722 -1719 -1598 1639 0
1722 1719 -1598 1639 0
1722 -1719 1598 1639 0
1722 -1719 -1598 -1639 0
-1721 1719 1598 0
-1721 1719 1639 0
-1721 1598 1639 0
1721 -1719 -1598 0
1721 -1719 -1639 0
1721 -1598 -1639 0
-1724 1721 1600 1640 0
-1724 1721 -1600 -1640 0
-1724 -1721 1600 -1640 0
1724 1721 1600 -1640 0
-1724 -1721 -1600 1640 0
1724 1721 -1600 1640 0
1724 -1721 1600 1640 0
1724 -1721 -1600 -1640 0
-1723 1721 1600 0
-1723 1721 1640 0
-1723 1600 1640 0
1723 -1721 -1600 0
1723 -1721 -1640 0
1723 -1600 -1640 0
-1726 1723 1602 1641 0
-1726 1723 -1602 -1641 0
-1726 -1723 1602 -1641 0
1726 1723 1602 -1641 0
-1726 -1723 -1602 1641 0
1726 1723 -1602 1641 0
1726 -1723 1602 1641 0
1726 -1723 -1602 -1641 0
-1725 1723 1602 0
-1725 1723 1641 0
-1725 1602 1641 0
1725 -1723 -1602 0
1725 -1723 -1641 0
1725 -1602 -1641 0
-1728 1725 1604 1642 0
-1728 1725 -1604 -1642 0
-1728 -1725 1604 -1642 0
1728 1725 1604 -1642 0
-1728 -1725 -1604 1642 0
1728 1725 -1604 1642 0
1728 -1725 1604 1642 0
1728 -1725 -1604 -1642 0
-1727 1725 1604 0
-1727 1725 1642 0
-1727 1604 1642 0
1727 -1725 -1604 0
1727 -1725 -1642 0
1727 -1604 -1642 0
-1730 1727 1606 1643 0
-1730 1727 -1606 -1643 0
-1730 -1727 1606 -1643 0
1730 1727 1606 -1643 0
-1730 -1727 -1606 1643 0
1730 1727 -1606 1643 0
1730 -1727 1606 1643 0
1730 -1727 -1606 -1643 0
-1729 1727 1606 0
-1729 1727 1643 0
-1729 1606 1643 0
1729 -1727 -1606 0
1729 -1727 -1643 0
1729 -1606 -1643 0
-1732 1729 1608 1644 0
-1732 1729 -1608 -1644 0
-1732 -1729 1608 -1644 0
1732 1729 1608 -1644 0
-1732 -1729 -1608 1644 0
1732 1729 -1608 1644 0
1732 -1729 1608 1644 0
1732 -1729 -1608 -1644 0
-1731 1729 1608 0
-1731 1729 1644 0
-1731 1608 1644 0
1731 -1729 -1608 0
1731 -1729 -1644 0
1731 -1608 -1644 0
-1734 1731 1610 1645 0
-1734 1731 -1610 -1645 0
-1734 -1731 1610 -1645 0
1734 1731 1610 -1645 0
-1734 -1731 -1610 1645 0
1734 1731 -1610 1645 0
1734 -1731 1610 1645 0
1734 -1731 -1610 -1645 0
-1733 1731 1610 0
-1733 1731 1645 0
-1733 1610 1645 0
1733 -1731 -1610 0
1733 -1731 -1645 0
1733 -1610 -1645 0
-1736 1733 1612 1646 0
-1736 1733 -1612 -1646 0
-1736 -1733 1612 -1646 0
1736 1733 1612 -1646 0
-1736 -1733 -1612 1646 0
1736 1733 -1612 1646 0
1736 -1733 1612 1646 0
1736 -1733 -1612 -1646 0
-1735 1733 1612 0
-1735 1733 1646 0
-1735 1612 1646 0
1735 -1733 -1612 0
1735 -1733 -1646 0
1735 -1612 -1646 0
-1738 1735 1614 1647 0
-1738 1735 -1614 -1647 0
-1738 -1735 1614 -1647 0
1738 1735 1614 -1647 0
-1738 -1735 -1614 1647 0
1738 1735 -1614 1647 0
1738 -1735 1614 1647 0
1738 -1735 -1614 -1647 0
-1737 1735 1614 0
-1737 1735 1647 0
-1737 1614 1647 0
1737 -1735 -1614 0
1737 -1735 -1647 0
1737 -1614 -1647 0
-1740 1737 1616 1648 0
-1740 1737 -1616 -1648 0
-1740 -1737 1616 -1648 0
1740 1737 1616 -1648 0
-1740 -1737 -1616 1648 0
1740 1737 -1616 1648 0
1740 -1737 1616 1648 0
1740 -1737 -1616 -1648 0
-1739 1737 1616 0
-1739 1737 1648 0
-1739 1616 1648 0
1739 -1737 -1616 0
1739 -1737 -1648 0
1739 -1616 -1648 0
-1742 1739 1618 1649 0
-1742 1739 -1618 -1649 0
-1742 -1739 1618 -1649 0
1742 1739 1618 -1649 0
-1742 -1739 -1618 1649 0
1742 1739 -1618 1649 0
1742 -1739 1618 1649 0
1742 -1739 -1618 -1649 0
-1741 1739 1618 0
-1741 1739 1649 0
-1741 1618 1649 0
1741 -1739 -1618 0
1741 -1739 -1649 0
1741 -1618 -1649 0
-1744 1741 1617 1650 0
-1744 1741 -1617 -1650 0
-1744 -1741 1617 -1650 0
1744 1741 1617 -1650 0
-1744 -1741 -1617 1650 0
1744 1741 -1617 1650 0
1744 -1741 1617 1650 0
1744 -1741 -1617 -1650 0
-1743 1741 1617 0
-1743 1741 1650 0
-1743 1617 1650 0
1743 -1741 -1617 0
1743 -1741 -1650 0
1743 -1617 -1650 0
-1745 1 0
-1745 17 0
1745 -1 -17 0
-1746 2 0
-1746 17 0
1746 -2 -17 0
-1747 3 0
-1747 17 0
1747 -3 -17 0
-1748 4 0
-1748 17 0
1748 -4 -17 0
-1749 5 0
-1749 17 0
1749 -5 -17 0
-1750 6 0
-1750 17 0
1750 -6 -17 0
-1751 7 0
-1751 17 0
1751 -7 -17 0
-1752 8 0
-1752 17 0
1752 -8 -17 0
-1753 9 0
-1753 17 0
1753 -9 -17 0
-1754 10 0
-1754 17 0
1754 -10 -17 0
-1755 11 0
-1755 17 0
1755 -11 -17 0
-1756 12 0
-1756 17 0
1756 -12 -17 0
-1757 13 0
-1757 17 0
1757 -13 -17 0
-1758 14 0
-1758 17 0
1758 -14 -17 0
-1759 15 0
-1759 17 0
1759 -15 -17 0
-1760 16 0
-1760 17 0
1760 -16 -17 0
-1761 17 0
1761 -17 0
-1762 18 0
-1762 17 0
1762 -18 -17 0
-1763 19 0
-1763 17 0
1763 -19 -17 0
-1764 20 0
-1764 17 0
1764 -20 -17 0
-1765 21 0
-1765 17 0
1765 -21 -17 0
-1766 22 0
-1766 17 0
1766 -22 -17 0
-1767 23 0
-1767 17 0
1767 -23 -17 0
-1768 24 0
-1768 17 0
1768 -24 -17 0
-1769 25 0
-1769 17 0
1769 -25 -17 0
-1770 26 0
-1770 17 0
1770 -26 -17 0
-1771 27 0
-1771 17 0
1771 -27 -17 0
-1772 28 0
-1772 17 0
1772 -28 -17 0
-1773 29 0
-1773 17 0
1773 -29 -17 0
-1774 30 0
-1774 17 0
1774 -30 -17 0
-1775 31 0
-1775 17 0
1775 -31 -17 0
-1776 32 0
-1776 17 0
1776 -32 -17 0
-1652 1778 0
1652 -1778 0
-1777 0
1654 1777 -1780 0
-1654 -1777 -1780 0
-1654 1777 1780 0
1654 -1777 1780 0
-1779 1777 0
-1779 1654 0
1779 -1777 -1654 0
1656 1779 -1782 0
-1656 -1779 -1782 0
-1656 1779 1782 0
1656 -1779 1782 0
-1781 1779 0
-1781 1656 0
1781 -1779 -1656 0
1658 1781 -1784 0
-1658 -1781 -1784 0
-1658 1781 1784 0
1658 -1781 1784 0
-1783 1781 0
-1783 1658 0
1783 -1781 -1658 0
1660 1783 -1786 0
-1660 -1783 -1786 0
-1660 1783 1786 0
1660 -1783 1786 0
-1785 1783 0
-1785 1660 0
1785 -1783 -1660 0
1662 1785 -1788 0
-1662 -1785 -1788 0
-1662 1785 1788 0
1662 -1785 1788 0
-1787 1785 0
-1787 1662 0
1787 -1785 -1662 0
1664 1787 -1790 0
-1664 -1787 -1790 0
-1664 1787 1790 0
1664 -1787 1790 0
-1789 1787 0
-1789 1664 0
1789 -1787 -1664 0
1666 1789 -1792 0
-1666 -1789 -1792 0
-1666 1789 1792 0
1666 -1789 1792 0
-1791 1789 0
-1791 1666 0
1791 -1789 -1666 0
1668 1791 -1794 0
-1668 -1791 -1794 0
-1668 1791 1794 0
1668 -1791 1794 0
-1793 1791 0
-1793 1668 0
1793 -1791 -1668 0
1670 1793 -1796 0
-1670 -1793 -1796 0
-1670 1793 1796 0
1670 -1793 1796 0
-1795 1793 0
-1795 1670 0
1795 -1793 -1670 0
1672 1795 -1798 0
-1672 -1795 -1798 0
-1672 1795 1798 0
1672 -1795 1798 0
-1797 1795 0
-1797 1672 0
1797 -1795 -1672 0
1674 1797 -1800 0
-1674 -1797 -1800 0
-1674 1797 1800 0
1674 -1797 1800 0
-1799 1797 0
-1799 1674 0
1799 -1797 -1674 0
1676 1799 -1802 0
-1676 -1799 -1802 0
-1676 1799 1802 0
1676 -1799 1802 0
-1801 1799 0
-1801 1676 0
1801 -1799 -1676 0
1678 1801 -1804 0
-1678 -1801 -1804 0
-1678 1801 1804 0
1678 -1801 1804 0
-1803 1801 0
-1803 1678 0
1803 -1801 -1678 0
1680 1803 -1806 0
-1680 -1803 -1806 0
-1680 1803 1806 0
1680 -1803 1806 0
-1805 1803 0
-1805 1680 0
1805 -1803 -1680 0
1682 1805 -1808 0
-1682 -1805 -1808 0
-1682 1805 1808 0
1682 -1805 1808 0
-1807 1805 0
-1807 1682 0
1807 -1805 -1682 0
-1810 1807 1684 1745 0
-1810 1807 -1684 -1745 0
-1810 -1807 1684 -1745 0
1810 1807 1684 -1745 0
-1810 -1807 -1684 1745 0
1810 1807 -1684 1745 0
1810 -1807 1684 1745 0
1810 -1807 -1684 -1745 0
-1809 1807 1684 0
-1809 1807 1745 0
-1809 1684 1745 0
1809 -1807 -1684 0
1809 -1807 -1745 0
1809 -1684 -1745 0
-1812 1809 1686 1746 0
-1812 1809 -1686 -1746 0
-1812 -1809 1686 -1746 0
1812 1809 1686 -1746 0
-1812 -1809 -1686 1746 0
1812 1809 -1686 1746 0
1812 -1809 1686 1746 0
1812 -1809 -1686 -1746 0
-1811 1809 1686 0
-1811 1809 1746 0
-1811 1686 1746 0
1811 -1809 -1686 0
1811 -1809 -1746 0
1811 -1686 -1746 0
-1814 1811 1688 1747 0
-1814 1811 -1688 -1747 0
-1814 -1811 1688 -1747 0
1814 1811 1688 -1747 0
-1814 -1811 -1688 1747 0
1814 1811 -1688 1747 0
1814 -1811 1688 1747 0
1814 -1811 -1688 -1747 0
-1813 1811 1688 0
-1813 1811 1747 0
-1813 1688 1747 0
1813 -1811 -1688 0
1813 -1811 -1747 0
1813 -1688 -1747 0
-1816 1813 1690 1748 0
-1816 1813 -1690 -1748 0
-1816 -1813 1690 -1748 0
1816 1813 1690 -1748 0
-1816 -1813 -1690 1748 0
1816 1813 -1690 1748 0
1816 -1813 1690 1748 0
1816 -1813 -1690 -1748 0
-1815 1813 1690 0
-1815 1813 1748 0
-1815 1690 1748 0
1815 -1813 -1690 0
1815 -1813 -1748 0
1815 -1690 -1748 0
-1818 1815 1692 1749 0
-1818 1815 -1692 -1749 0
-1818 -1815 1692 -1749 0
1818 1815 1692 -1749 0
-1818 -1815 -1692 1749 0
1818 1815 -1692 1749 0
1818 -1815 1692 1749 0
1818 -1815 -1692 -1749 0
-1817 1815 1692 0
-1817 1815 1749 0
-1817 1692 1749 0
1817 -1815 -1692 0
1817 -1815 -1749 0
1817 -1692 -1749 0
-1820 1817 1694 1750 0
-1820 1817 -1694 -1750 0
-1820 -1817 1694 -1750 0
1820 1817 1694 -1750 0
-1820 -1817 -1694 1750 0
1820 1817 -1694 1750 0
1820 -1817 1694 1750 0
1820 -1817 -1694 -1750 0
-1819 1817 1694 0
-1819 1817 1750 0
-1819 1694 1750 0
1819 -1817 -1694 0
1819 -1817 -1750 0
1819 -1694 -1750 0
-1822 1819 1696 1751 0
-1822 1819 -1696 -1751 0
-1822 -1819 1696 -1751 0
1822 1819 1696 -1751 0
-1822 -1819 -1696 1751 0
1822 1819 -1696 1751 0
1822 -1819 1696 1751 0
1822 -1819 -1696 -1751 0
-1821 1819 1696 0
-1821 1819 1751 0
-1821 1696 1751 0
1821 -1819 -1696 0
1821 -1819 -1751 0
1821 -1696 -1751 0
-1824 1821 1698 1752 0
-1824 1821 -1698 -1752 0
-1824 -1821 1698 -1752 0
1824 1821 1698 -1752 0
-1824 -1821 -1698 1752 0
1824 1821 -1698 1752 0
1824 -1821 1698 1752 0
1824 -1821 -1698 -1752 0
-1823 1821 1698 0
-1823 1821 1752 0
-1823 1698 1752 0
1823 -1821 -1698 0
1823 -1821 -1752 0
1823 -1698 -1752 0
-1826 1823 1700 1753 0
-1826 1823 -1700 -1753 0
-1826 -1823 1700 -1753 0
1826 1823 1700 -1753 0
-1826 -1823 -1700 1753 0
1826 1823 -1700 1753 0
1826 -1823 1700 1753 0
1826 -1823 -1700 -1753 0
-1825 1823 1700 0
-1825 1823 1753 0
-1825 1700 1753 0
1825 -1823 -1700 0
1825 -1823 -1753 0
1825 -1700 -1753 0
-1828 1825 1702 1754 0
-1828 1825 -1702 -1754 0
-1828 -1825 1702 -1754 0
1828 1825 1702 -1754 0
-1828 -1825 -1702 1754 0
1828 1825 -1702 1754 0
1828 -1825 1702 1754 0
1828 -1825 -1702 -1754 0
-1827 1825 1702 0
-1827 1825 1754 0
-1827 1702 1754 0
1827 -1825 -1702 0
1827 -1825 -1754 0
1827 -1702 -1754 0
-1830 1827 1704 1755 0
-1830 1827 -1704 -1755 0
-1830 -1827 1704 -1755 0
1830 1827 1704 -1755 0
-1830 -1827 -1704 1755 0
1830 1827 -1704 1755 0
1830 -1827 1704 1755 0
1830 -1827 -1704 -1755 0
-1829 1827 1704 0
-1829 1827 1755 0
-1829 1704 1755 0
1829 -1827 -1704 0
1829 -1827 -1755 0
1829 -1704 -1755 0
-1832 1829 1706 1756 0
-1832 1829 -1706 -1756 0
-1832 -1829 1706 -1756 0
1832 1829 1706 -1756 0
-1832 -1829 -1706 1756 0
1832 1829 -1706 1756 0
1832 -1829 1706 1756 0
1832 -1829 -1706 -1756 0
-1831 1829 1706 0
-1831 1829 1756 0
-1831 1706 1756 0
1831 -1829 -1706 0
1831 -1829 -1756 0
1831 -1706 -1756 0
-1834 1831 1708 1757 0
-1834 1831 -1708 -1757 0
-1834 -1831 1708 -1757 0
1834 1831 1708 -1757 0
-1834 -1831 -1708 1757 0
1834 1831 -1708 1757 0
1834 -1831 1708 1757 0
1834 -1831 -1708 -1757 0
-1833 1831 1708 0
-1833 1831 1757 0
-1833 1708 1757 0
1833 -1831 -1708 0
1833 -1831 -1757 0
1833 -1708 -1757 0
-1836 1833 1710 1758 0
-1836 1833 -1710 -1758 0
-1836 -1833 1710 -1758 0
1836 1833 1710 -1758 0
-1836 -1833 -1710 1758 0
1836 1833 -1710 1758 0
1836 -1833 1710 1758 0
1836 -1833 -1710 -1758 0
-1835 1833 1710 0
-1835 1833 1758 0
-1835 1710 1758 0
1835 -1833 -1710 0
1835 -1833 -1758 0
1835 -1710 -1758 0
-1838 1835 1712 1759 0
-1838 1835 -1712 -1759 0
-1838 -1835 1712 -1759 0
1838 1835 1712 -1759 0
-1838 -1835 -1712 1759 0
1838 1835 -1712 1759 0
1838 -1835 1712 1759 0
1838 -1835 -1712 -1759 0
-1837 1835 1712 0
-1837 1835 1759 0
-1837 1712 1759 0
1837 -1835 -1712 0
1837 -1835 -1759 0
1837 -1712 -1759 0
-1840 1837 1714 1760 0
-1840 1837 -1714 -1760 0
-1840 -1837 1714 -1760 0
1840 1837 1714 -1760 0
-1840 -1837 -1714 1760 0
1840 1837 -1714 1760 0
1840 -1837 1714 1760 0
1840 -1837 -1714 -1760 0
-1839 1837 1714 0
-1839 1837 1760 0
-1839 1714 1760 0
1839 -1837 -1714 0
1839 -1837 -1760 0
1839 -1714 -1760 0
-1842 1839 1716 1761 0
-1842 1839 -1716 -1761 0
-1842 -1839 1716 -1761 0
1842 1839 1716 -1761 0
-1842 -1839 -1716 1761 0
1842 1839 -1716 1761 0
1842 -1839 1716 1761 0
1842 -1839 -1716 -1761 0
-1841 1839 1716 0
-1841 1839 1761 0
-1841 1716 1761 0
1841 -1839 -1716 0
1841 -1839 -1761 0
1841 -1716 -1761 0
-1844 1841 1718 1762 0
-1844 1841 -1718 -1762 0
-1844 -1841 1718 -1762 0
1844 1841 1718 -1762 0
-1844 -1841 -1718 1762 0
1844 1841 -1718 1762 0
1844 -1841 1718 1762 0
1844 -1841 -1718 -1762 0
-1843 1841 1718 0
-1843 1841 1762 0
-1843 1718 1762 0
1843 -1841 -1718 0
1843 -1841 -1762 0
1843 -1718 -1762 0
-1846 1843 1720 1763 0
-1846 1843 -1720 -1763 0
-1846 -1843 1720 -1763 0
1846 1843 1720 -1763 0
-1846 -1843 -1720 1763 0
1846 1843 -1720 1763 0
1846 -1843 1720 1763 0
1846 -1843 -1720 -1763 0
-1845 1843 1720 0
-1845 1843 1763 0
-1845 1720 1763 0
1845 -1843 -1720 0
1845 -1843 -1763 0
1845 -1720 -1763 0
-1848 1845 1722 1764 0
-1848 1845 -1722 -1764 0
-1848 -1845 1722 -1764 0
1848 1845 1722 -1764 0
-1848 -1845 -1722 1764 0
1848 1845 -1722 1764 0
1848 -1845 1722 1764 0
1848 -1845 -1722 -1764 0
-1847 1845 1722 0
-1847 1845 1764 0
-1847 1722 1764 0
1847 -1845 -1722 0
1847 -1845 -1764 0
1847 -1722 -1764 0
-1850 1847 1724 1765 0
-1850 1847 -1724 -1765 0
-1850 -1847 1724 -1765 0
1850 1847 1724 -1765 0
-1850 -1847 -1724 1765 0
1850 1847 -1724 1765 0
1850 -1847 1724 1765 0
1850 -1847 -1724 -1765 0
-1849 1847 1724 0
-1849 1847 1765 0
-1849 1724 1765 0
1849 -1847 -1724 0
1849 -1847 -1765 0
1849 -1724 -1765 0
-1852 1849 1726 1766 0
-1852 1849 -1726 -1766 0
-1852 -1849 1726 -1766 0
1852 1849 1726 -1766 0
-1852 -1849 -1726 1766 0
1852 1849 -1726 1766 0
1852 -1849 1726 1766 0
1852 -1849 -1726 -1766 0
-1851 1849 1726 0
-1851 1849 1766 0
-1851 1726 1766 0
1851 -1849 -1726 0
1851 -1849 -1766 0
1851 -1726 -1766 0
-1854 1851 1728 1767 0
-1854 1851 -1728 -1767 0
-1854 -1851 1728 -1767 0
1854 1851 1728 -1767 0
-1854 -1851 -1728 1767 0
1854 1851 -1728 1767 0
1854 -1851 1728 1767 0
1854 -1851 -1728 -1767 0
-1853 1851 1728 0
-1853 1851 1767 0
-1853 1728 1767 0
1853 -1851 -1728 0
1853 -1851 -1767 0
1853 -1728 -1767 0
-1856 1853 1730 1768 0
-1856 1853 -1730 -1768 0
-1856 -1853 1730 -1768 0
1856 1853 1730 -1768 0
-1856 -1853 -1730 1768 0
1856 1853 -1730 1768 0
1856 -1853 1730 1768 0
1856 -1853 -1730 -1768 0
-1855 1853 1730 0
-1855 1853 1768 0
-1855 1730 1768 0
1855 -1853 -1730 0
1855 -1853 -1768 0
1855 -1730 -1768 0
-1858 1855 1732 1769 0
-1858 1855 -1732 -1769 0
-1858 -1855 1732 -1769 0
1858 1855 1732 -1769 0
-1858 -1855 -1732 1769 0
1858 1855 -1732 1769 0
1858 -1855 1732 1769 0
1858 -1855 -1732 -1769 0
-1857 1855 1732 0
-1857 1855 1769 0
-1857 1732 1769 0
1857 -1855 -1732 0
1857 -1855 -1769 0
1857 -1732 -1769 0
-1860 1857 1734 1770 0
-1860 1857 -1734 -1770 0
-1860 -1857 1734 -1770 0
1860 1857 1734 -1770 0
-1860 -1857 -1734 1770 0
1860 1857 -1734 1770 0
1860 -1857 1734 1770 0
1860 -1857 -1734 -1770 0
-1859 1857 1734 0
-1859 1857 1770 0
-1859 1734 1770 0
1859 -1857 -1734 0
1859 -1857 -1770 0
1859 -1734 -1770 0
-1862 1859 1736 1771 0
-1862 1859 -1736 -1771 0
-1862 -1859 1736 -1771 0
1862 1859 1736 -1771 0
-1862 -1859 -1736 1771 0
1862 1859 -1736 1771 0
1862 -1859 1736 1771 0
1862 -1859 -1736 -1771 0
-1861 1859 1736 0
-1861 1859 1771 0
-1861 1736 1771 0
1861 -1859 -1736 0
1861 -1859 -1771 0
1861 -1736 -1771 0
-1864 1861 1738 1772 0
-1864 1861 -1738 -1772 0
-1864 -1861 1738 -1772 0
1864 1861 1738 -1772 0
-1864 -1861 -1738 1772 0
1864 1861 -1738 1772 0
1864 -1861 1738 1772 0
1864 -1861 -1738 -1772 0
-1863 1861 1738 0
-1863 1861 1772 0
-1863 1738 1772 0
1863 -1861 -1738 0
1863 -1861 -1772 0
1863 -1738 -1772 0
-1866 1863 1740 1773 0
-1866 1863 -1740 -1773 0
-1866 -1863 1740 -1773 0
1866 1863 1740 -1773 0
-1866 -1863 -1740 1773 0
1866 1863 -1740 1773 0
1866 -1863 1740 1773 0
1866 -1863 -1740 -1773 0
-1865 1863 1740 0
-1865 1863 1773 0
-1865 1740 1773 0
1865 -1863 -1740 0
1865 -1863 -1773 0
1865 -1740 -1773 0
-1868 1865 1742 1774 0
-1868 1865 -1742 -1774 0
-1868 -1865 1742 -1774 0
1868 1865 1742 -1774 0
-1868 -1865 -1742 1774 0
1868 1865 -1742 1774 0
1868 -1865 1742 1774 0
1868 -1865 -1742 -1774 0
-1867 1865 1742 0
-1867 1865 1774 0
-1867 1742 1774 0
1867 -1865 -1742 0
1867 -1865 -1774 0
1867 -1742 -1774 0
-1870 1867 1744 1775 0
-1870 1867 -1744 -1775 0
-1870 -1867 1744 -1775 0
1870 1867 1744 -1775 0
-1870 -1867 -1744 1775 0
1870 1867 -1744 1775 0
1870 -1867 1744 1775 0
1870 -1867 -1744 -1775 0
-1869 1867 1744 0
-1869 1867 1775 0
-1869 1744 1775 0
1869 -1867 -1744 0
1869 -1867 -1775 0
1869 -1744 -1775 0
-1872 1869 1743 1776 0
-1872 1869 -1743 -1776 0
-1872 -1869 1743 -1776 0
1872 1869 1743 -1776 0
-1872 -1869 -1743 1776 0
1872 1869 -1743 1776 0
1872 -1869 1743 1776 0
1872 -1869 -1743 -1776 0
-1871 1869 1743 0
-1871 1869 1776 0
-1871 1743 1776 0
1871 -1869 -1743 0
1871 -1869 -1776 0
1871 -1743 -1776 0
-1873 1 0
-1873 18 0
1873 -1 -18 0
-1874 2 0
-1874 18 0
1874 -2 -18 0
-1875 3 0
-1875 18 0
1875 -3 -18 0
-1876 4 0
-1876 18 0
1876 -4 -18 0
-1877 5 0
-1877 18 0
1877 -5 -18 0
-1878 6 0
-1878 18 0
1878 -6 -18 0
-1879 7 0
-1879 18 0
1879 -7 -18 0
-1880 8 0
-1880 18 0
1880 -8 -18 0
-1881 9 0
-1881 18 0
1881 -9 -18 0
-1882 10 0
-1882 18 0
1882 -10 -18 0
-1883 11 0
-1883 18 0
1883 -11 -18 0
-1884 12 0
-1884 18 0
1884 -12 -18 0
-1885 13 0
-1885 18 0
1885 -13 -18 0
-1886 14 0
-1886 18 0
1886 -14 -18 0
-1887 15 0
-1887 18 0
1887 -15 -18 0
-1888 16 0
-1888 18 0
1888 -16 -18 0
-1889 17 0
-1889 18 0
1889 -17 -18 0
-1890 18 0
1890 -18 0
-1891 19 0
-1891 18 0
1891 -19 -18 0
-1892 20 0
-1892 18 0
1892 -20 -18 0
-1893 21 0
-1893 18 0
1893 -21 -18 0
-1894 22 0
-1894 18 0
1894 -22 -18 0
-1895 23 0
-1895 18 0
1895 -23 -18 0
-1896 24 0
-1896 18 0
1896 -24 -18 0
-1897 25 0
-1897 18 0
1897 -25 -18 0
-1898 26 0
-1898 18 0
1898 -26 -18 0
-1899 27 0
-1899 18 0
1899 -27 -18 0
-1900 28 0
-1900 18 0
1900 -28 -18 0
-1901 29 0
-1901 18 0
1901 -29 -18 0
-1902 30 0
-1902 18 0
1902 -30 -18 0
-1903 31 0
-1903 18 0
1903 -31 -18 0
-1904 32 0
-1904 18 0
1904 -32 -18 0
-1778 1906 0
1778 -1906 0
-1905 0
1780 1905 -1908 0
-1780 -1905 -1908 0
-1780 1905 1908 0
1780 -1905 1908 0
-1907 1905 0
-1907 1780 0
1907 -1905 -1780 0
1782 1907 -1910 0
-1782 -1907 -1910 0
-1782 1907 1910 0
1782 -1907 1910 0
-1909 1907 0
-1909 1782 0
1909 -1907 -1782 0
1784 1909 -1912 0
-1784 -1909 -1912 0
-1784 1909 1912 0
1784 -1909 1912 0
-1911 1909 0
-1911 1784 0
1911 -1909 -1784 0
1786 1911 -1914 0
-1786 -1911 -1914 0
-1786 1911 1914 0
1786 -1911 1914 0
-1913 1911 0
-1913 1786 0
1913 -1911 -1786 0
1788 1913 -1916 0
-1788 -1913 -1916 0
-1788 1913 1916 0
1788 -1913 1916 0
-1915 1913 0
-1915 1788 0
1915 -1913 -1788 0
1790 1915 -1918 0
-1790 -1915 -1918 0
-1790 1915 1918 0
1790 -1915 1918 0
-1917 1915 0
-1917 1790 0
1917 -1915 -1790 0
1792 1917 -1920 0
-1792 -1917 -1920 0
-1792 1917 1920 0
1792 -1917 1920 0
-1919 1917 0
-1919 1792 0
1919 -1917 -1792 0
1794 1919 -1922 0
-1794 -1919 -1922 0
-1794 1919 1922 0
1794 -1919 1922 0
-1921 1919 0
-1921 1794 0
1921 -1919 -1794 0
1796 1921 -1924 0
-1796 -1921 -1924 0
-1796 1921 1924 0
1796 -1921 1924 0
-1923 1921 0
-1923 1796 0
1923 -1921 -1796 0
1798 1923 -1926 0
-1798 -1923 -1926 0
-1798 1923 1926 0
1798 -1923 1926 0
-1925 1923 0
-1925 1798 0
1925 -1923 -1798 0
1800 1925 -1928 0
-1800 -1925 -1928 0
-1800 1925 1928 0
1800 -1925 1928 0
-1927 1925 0
-1927 1800 0
1927 -1925 -1800 0
1802 1927 -1930 0
-1802 -1927 -1930 0
-1802 1927 1930 0
1802 -1927 1930 0
-1929 1927 0
-1929 1802 0
1929 -1927 -1802 0
1804 1929 -1932 0
-1804 -1929 -1932 0
-1804 1929 1932 0
1804 -1929 1932 0
-1931 1929 0
-1931 1804 0
1931 -1929 -1804 0
1806 1931 -1934 0
-1806 -1931 -1934 0
-1806 1931 1934 0
1806 -1931 1934 0
-1933 1931 0
-1933 1806 0
1933 -1931 -1806 0
1808 1933 -1936 0
-1808 -1933 -1936 0
-1808 1933 1936 0
1808 -1933 1936 0
-1935 1933 0
-1935 1808 0
1935 -1933 -1808 0
1810 1935 -1938 0
-1810 -1935 -1938 0
-1810 1935 1938 0
1810 -1935 1938 0
-1937 1935 0
-1937 1810 0
1937 -1935 -1810 0
-1940 1937 1812 1873 0
-1940 1937 -1812 -1873 0
-1940 -1937 1812 -1873 0
1940 1937 1812 -1873 0
-1940 -1937 -1812 1873 0
1940 1937 -1812 1873 0
1940 -1937 1812 1873 0
1940 -1937 -1812 -1873 0
-1939 1937 1812 0
-1939 1937 1873 0
-1939 1812 1873 0
1939 -1937 -1812 0
1939 -1937 -1873 0
1939 -1812 -1873 0
-1942 1939 1814 1874 0
-1942 1939 -1814 -1874 0
-1942 -1939 1814 -1874 0
1942 1939 1814 -1874 0
-1942 -1939 -1814 1874 0
1942 1939 -1814 1874 0
1942 -1939 1814 1874 0
1942 -1939 -1814 -1874 0
-1941 1939 1814 0
-1941 1939 1874 0
-1941 1814 1874 0
1941 -1939 -1814 0
1941 -1939 -1874 0
1941 -1814 -1874 0
-1944 1941 1816 1875 0
-1944 1941 -1816 -1875 0
-1944 -1941 1816 -1875 0
1944 1941 1816 -1875 0
-1944 -1941 -1816 1875 0
1944 1941 -1816 1875 0
1944 -1941 1816 1875 0
1944 -1941 -1816 -1875 0
-1943 1941 1816 0
-1943 1941 1875 0
-1943 1816 1875 0
1943 -1941 -1816 0
1943 -1941 -1875 0
1943 -1816 -1875 0
-1946 1943 1818 1876 0
-1946 1943 -1818 -1876 0
-1946 -1943 1818 -1876 0
1946 1943 1818 -1876 0
-1946 -1943 -1818 1876 0
1946 1943 -1818 1876 0
1946 -1943 1818 1876 0
1946 -1943 -1818 -1876 0
-1945 1943 1818 0
-1945 1943 1876 0
-1945 1818 1876 0
1945 -1943 -1818 0
1945 -1943 -1876 0
1945 -1818 -1876 0
-1948 1945 1820 1877 0
-1948 1945 -1820 -1877 0
-1948 -1945 1820 -1877 0
1948 1945 1820 -1877 0
-1948 -1945 -1820 1877 0
1948 1945 -1820 1877 0
1948 -1945 1820 1877 0
1948 -1945 -1820 -1877 0
-1947 1945 1820 0
-1947 1945 1877 0
-1947 1820 1877 0
1947 -1945 -1820 0
1947 -1945 -1877 0
1947 -1820 -1877 0
-1950 1947 1822 1878 0
-1950 1947 -1822 -1878 0
-1950 -1947 1822 -1878 0
1950 1947 1822 -1878 0
-1950 -1947 -1822 1878 0
1950 1947 -1822 1878 0
1950 -1947 1822 1878 0
1950 -1947 -1822 -1878 0
-1949 1947 1822 0
-1949 1947 1878 0
-1949 1822 1878 0
1949 -1947 -1822 0
1949 -1947 -1878 0
1949 -1822 -1878 0
-1952 1949 1824 1879 0
-1952 1949 -1824 -1879 0
-1952 -1949 1824 -1879 0
1952 1949 1824 -1879 0
-1952 -1949 -1824 1879 0
1952 1949 -1824 1879 0
1952 -1949 1824 1879 0
1952 -1949 -1824 -1879 0
-1951 1949 1824 0
-1951 1949 1879 0
-1951 1824 1879 0
1951 -1949 -1824 0
1951 -1949 -1879 0
1951 -1824 -1879 0
-1954 1951 1826 1880 0
-1954 1951 -1826 -1880 0
-1954 -1951 1826 -1880 0
1954 1951 1826 -1880 0
-1954 -1951 -1826 1880 0
1954 1951 -1826 1880 0
1954 -1951 1826 1880 0
1954 -1951 -1826 -1880 0
-1953 1951 1826 0
-1953 1951 1880 0
-1953 1826 1880 0
1953 -1951 -1826 0
1953 -1951 -1880 0
1953 -1826 -1880 0
-1956 1953 1828 1881 0
-1956 1953 -1828 -1881 0
-1956 -1953 1828 -1881 0
1956 1953 1828 -1881 0
-1956 -1953 -1828 1881 0
1956 1953 -1828 1881 0
1956 -1953 1828 1881 0
1956 -1953 -1828 -1881 0
-1955 1953 1828 0
-1955 1953 1881 0
-1955 1828 1881 0
1955 -1953 -1828 0
1955 -1953 -1881 0
1955 -1828 -1881 0
-1958 1955 1830 1882 0
-1958 1955 -1830 -1882 0
-1958 -1955 1830 -1882 0
1958 1955 1830 -1882 0
-1958 -1955 -1830 1882 0
1958 1955 -1830 1882 0
1958 -1955 1830 1882 0
1958 -1955 -1830 -1882 0
-1957 1955 1830 0
-1957 1955 1882 0
-1957 1830 1882 0
1957 -1955 -1830 0
1957 -1955 -1882 0
1957 -1830 -1882 0
-1960 1957 1832 1883 0
-1960 1957 -1832 -1883 0
-1960 -1957 1832 -1883 0
1960 1957 1832 -1883 0
-1960 -1957 -1832 1883 0
1960 1957 -1832 1883 0
1960 -1957 1832 1883 0
1960 -1957 -1832 -1883 0
-1959 1957 1832 0
-1959 1957 1883 0
-1959 1832 1883 0
1959 -1957 -1832 0
1959 -1957 -1883 0
1959 -1832 -1883 0
-1962 1959 1834 1884 0
-1962 1959 -1834 -1884 0
-1962 -1959 1834 -1884 0
1962 1959 1834 -1884 0
-1962 -1959 -1834 1884 0
1962 1959 -1834 1884 0
1962 -1959 1834 1884 0
1962 -1959 -1834 -1884 0
-1961 1959 1834 0
-1961 1959 1884 0
-1961 1834 1884 0
1961 -1959 -1834 0
1961 -1959 -1884 0
1961 -1834 -1884 0
-1964 1961 1836 1885 0
-1964 1961 -1836 -1885 0
-1964 -1961 1836 -1885 0
1964 1961 1836 -1885 0
-1964 -1961 -1836 1885 0
1964 1961 -1836 1885 0
1964 -1961 1836 1885 0
1964 -1961 -1836 -1885 0
-1963 1961 1836 0
-1963 1961 1885 0
-1963 1836 1885 0
1963 -1961 -1836 0
1963 -1961 -1885 0
1963 -1836 -1885 0
-1966 1963 1838 1886 0
-1966 1963 -1838 -1886 0
-1966 -1963 1838 -1886 0
1966 1963 1838 -1886 0
-1966 -1963 -1838 1886 0
1966 1963 -1838 1886 0
1966 -1963 1838 1886 0
1966 -1963 -1838 -1886 0
-1965 1963 1838 0
-1965 1963 1886 0
-1965 1838 1886 0
1965 -1963 -1838 0
1965 -1963 -1886 0
1965 -1838 -1886 0
-1968 1965 1840 1887 0
-1968 1965 -1840 -1887 0
-1968 -1965 1840 -1887 0
1968 1965 1840 -1887 0
-1968 -1965 -1840 1887 0
1968 1965 -1840 1887 0
1968 -1965 1840 1887 0
1968 -1965 -1840 -1887 0
-1967 1965 1840 0
-1967 1965 1887 0
-1967 1840 1887 0
1967 -1965 -1840 0
1967 -1965 -1887 0
1967 -1840 -1887 0
-1970 1967 1842 1888 0
-1970 1967 -1842 -1888 0
-1970 -1967 1842 -1888 0
1970 1967 1842 -1888 0
-1970 -1967 -1842 1888 0
1970 1967 -1842 1888 0
1970 -1967 1842 1888 0
1970 -1967 -1842 -1888 0
-1969 1967 1842 0
-1969 1967 1888 0
-1969 1842 1888 0
1969 -1967 -1842 0
1969 -1967 -1888 0
1969 -1842 -1888 0
-1972 1969 1844 1889 0
-1972 1969 -1844 -1889 0
-1972 -1969 1844 -1889 0
1972 1969 1844 -1889 0
-1972 -1969 -1844 1889 0
1972 1969 -1844 1889 0
1972 -1969 1844 1889 0
1972 -1969 -1844 -1889 0
-1971 1969 1844 0
-1971 1969 1889 0
-1971 1844 1889 0
1971 -1969 -1844 0
1971 -1969 -1889 0
1971 -1844 -1889 0
-1974 1971 1846 1890 0
-1974 1971 -1846 -1890 0
-1974 -1971 1846 -1890 0
1974 1971 1846 -1890 0
-1974 -1971 -1846 1890 0
1974 1971 -1846 1890 0
1974 -1971 1846 1890 0
1974 -1971 -1846 -1890 0
-1973 1971 1846 0
-1973 1971 1890 0
-1973 1846 1890 0
1973 -1971 -1846 0
1973 -1971 -1890 0
1973 -1846 -1890 0
-1976 1973 1848 1891 0
-1976 1973 -1848 -1891 0
-1976 -1973 1848 -1891 0
1976 1973 1848 -1891 0
-1976 -1973 -1848 1891 0
1976 1973 -1848 1891 0
1976 -1973 1848 1891 0
1976 -1973 -1848 -1891 0
-1975 1973 1848 0
-1975 1973 1891 0
-1975 1848 1891 0
1975 -1973 -1848 0
1975 -1973 -1891 0
1975 -1848 -1891 0
-1978 1975 1850 1892 0
-1978 1975 -1850 -1892 0
-1978 -1975 1850 -1892 0
1978 1975 1850 -1892 0
-1978 -1975 -1850 1892 0
1978 1975 -1850 1892 0
1978 -1975 1850 1892 0
1978 -1975 -1850 -1892 0
-1977 1975 1850 0
-1977 1975 1892 0
-1977 1850 1892 0
1977 -1975 -1850 0
1977 -1975 -1892 0
1977 -1850 -1892 0
-1980 1977 1852 1893 0
-1980 1977 -1852 -1893 0
-1980 -1977 1852 -1893 0
1980 1977 1852 -1893 0
-1980 -1977 -1852 1893 0
1980 1977 -1852 1893 0
1980 -1977 1852 1893 0
1980 -1977 -1852 -1893 0
-1979 1977 1852 0
-1979 1977 1893 0
-1979 1852 1893 0
1979 -1977 -1852 0
1979 -1977 -1893 0
1979 -1852 -1893 0
-1982 1979 1854 1894 0
-1982 1979 -1854 -1894 0
-1982 -1979 1854 -1894 0
1982 1979 1854 -1894 0
-1982 -1979 -1854 1894 0
1982 1979 -1854 1894 0
1982 -1979 1854 1894 0
1982 -1979 -1854 -1894 0
-1981 1979 1854 0
-1981 1979 1894 0
-1981 1854 1894 0
1981 -1979 -1854 0
1981 -1979 -1894 0
1981 -1854 -1894 0
-1984 1981 1856 1895 0
-1984 1981 -1856 -1895 0
-1984 -1981 1856 -1895 0
1984 1981 1856 -1895 0
-1984 -1981 -1856 1895 0
1984 1981 -1856 1895 0
1984 -1981 1856 1895 0
1984 -1981 -1856 -1895 0
-1983 1981 1856 0
-1983 1981 1895 0
-1983 1856 1895 0
1983 -1981 -1856 0
1983 -1981 -1895 0
1983 -1856 -1895 0
-1986 1983 1858 1896 0
-1986 1983 -1858 -1896 0
-1986 -1983 1858 -1896 0
1986 1983 1858 -1896 0
-1986 -1983 -1858 1896 0
1986 1983 -1858 1896 0
1986 -1983 1858 1896 0
1986 -1983 -1858 -1896 0
-1985 1983 1858 0
-1985 1983 1896 0
-1985 1858 1896 0
1985 -1983 -1858 0
1985 -1983 -1896 0
1985 -1858 -1896 0
-1988 1985 1860 1897 0
-1988 1985 -1860 -1897 0
-1988 -1985 1860 -1897 0
1988 1985 1860 -1897 0
-1988 -1985 -1860 1897 0
1988 1985 -1860 1897 0
1988 -1985 1860 1897 0
1988 -1985 -1860 -1897 0
-1987 1985 1860 0
-1987 1985 1897 0
-1987 1860 1897 0
1987 -1985 -1860 0
1987 -1985 -1897 0
1987 -1860 -1897 0
-1990 1987 1862 1898 0
-1990 1987 -1862 -1898 0
-1990 -1987 1862 -1898 0
1990 1987 1862 -1898 0
-1990 -1987 -1862 1898 0
1990 1987 -1862 1898 0
1990 -1987 1862 1898 0
1990 -1987 -1862 -1898 0
-1989 1987 1862 0
-1989 1987 1898 0
-1989 1862 1898 0
1989 -1987 -1862 0
1989 -1987 -1898 0
1989 -1862 -1898 0
-1992 1989 1864 1899 0
-1992 1989 -1864 -1899 0
-1992 -1989 1864 -1899 0
1992 1989 1864 -1899 0
-1992 -1989 -1864 1899 0
1992 1989 -1864 1899 0
1992 -1989 1864 1899 0
1992 -1989 -1864 -1899 0
-1991 1989 1864 0
-1991 1989 1899 0
-1991 1864 1899 0
1991 -1989 -1864 0
1991 -1989 -1899 0
1991 -1864 -1899 0
-1994 1991 1866 1900 0
-1994 1991 -1866 -1900 0
-1994 -1991 1866 -1900 0
1994 1991 1866 -1900 0
-1994 -1991 -1866 1900 0
1994 1991 -1866 1900 0
1994 -1991 1866 1900 0
1994 -1991 -1866 -1900 0
-1993 1991 1866 0
-1993 1991 1900 0
-1993 1866 1900 0
1993 -1991 -1866 0
1993 -1991 -1900 0
1993 -1866 -1900 0
-1996 1993 1868 1901 0
-1996 1993 -1868 -1901 0
-1996 -1993 1868 -1901 0
1996 1993 1868 -1901 0
-1996 -1993 -1868 1901 0
1996 1993 -1868 1901 0
1996 -1993 1868 1901 0
1996 -1993 -1868 -1901 0
-1995 1993 1868 0
-1995 1993 1901 0
-1995 1868 1901 0
1995 -1993 -1868 0
1995 -1993 -1901 0
1995 -1868 -1901 0
-1998 1995 1870 1902 0
-1998 1995 -1870 -1902 0
-1998 -1995 1870 -1902 0
1998 1995 1870 -1902 0
-1998 -1995 -1870 1902 0
1998 1995 -1870 1902 0
1998 -1995 1870 1902 0
1998 -1995 -1870 -1902 0
-1997 1995 1870 0
-1997 1995 1902 0
-1997 1870 1902 0
1997 -1995 -1870 0
1997 -1995 -1902 0
1997 -1870 -1902 0
-2000 1997 1872 1903 0
-2000 1997 -1872 -1903 0
-2000 -1997 1872 -1903 0
2000 1997 1872 -1903 0
-2000 -1997 -1872 1903 0
2000 1997 -1872 1903 0
2000 -1997 1872 1903 0
2000 -1997 -1872 -1903 0
-1999 1997 1872 0
-1999 1997 1903 0
-1999 1872 1903 0
1999 -1997 -1872 0
1999 -1997 -1903 0
1999 -1872 -1903 0
-2002 1999 1871 1904 0
-2002 1999 -1871 -1904 0
-2002 -1999 1871 -1904 0
2002 1999 1871 -1904 0
-2002 -1999 -1871 1904 0
2002 1999 -1871 1904 0
2002 -1999 1871 1904 0
2002 -1999 -1871 -1904 0
-2001 1999 1871 0
-2001 1999 1904 0
-2001 1871 1904 0
2001 -1999 -1871 0
2001 -1999 -1904 0
2001 -1871 -1904 0
-2003 1 0
-2003 19 0
2003 -1 -19 0
-2004 2 0
-2004 19 0
2004 -2 -19 0
-2005 3 0
-2005 19 0
2005 -3 -19 0
-2006 4 0
-2006 19 0
2006 -4 -19 0
-2007 5 0
-2007 19 0
2007 -5 -19 0
-2008 6 0
-2008 19 0
2008 -6 -19 0
-2009 7 0
-2009 19 0
2009 -7 -19 0
-2010 8 0
-2010 19 0
2010 -8 -19 0
-2011 9 0
-2011 19 0
2011 -9 -19 0
-2012 10 0
-2012 19 0
2012 -10 -19 0
-2013 11 0
-2013 19 0
2013 -11 -19 0
-2014 12 0
-2014 19 0
2014 -12 -19 0
-2015 13 0
-2015 19 0
2015 -13 -19 0
-2016 14 0
-2016 19 0
2016 -14 -19 0
-2017 15 0
-2017 19 0
2017 -15 -19 0
-2018 16 0
-2018 19 0
2018 -16 -19 0
-2019 17 0
-2019 19 0
2019 -17 -19 0
-2020 18 0
-2020 19 0
2020 -18 -19 0
-2021 19 0
2021 -19 0
-2022 20 0
-2022 19 0
2022 -20 -19 0
-2023 21 0
-2023 19 0
2023 -21 -19 0
-2024 22 0
-2024 19 0
2024 -22 -19 0
-2025 23 0
-2025 19 0
2025 -23 -19 0
-2026 24 0
-2026 19 0
2026 -24 -19 0
-2027 25 0
-2027 19 0
2027 -25 -19 0
-2028 26 0
-2028 19 0
2028 -26 -19 0
-2029 27 0
-2029 19 0
2029 -27 -19 0
-2030 28 0
-2030 19 0
2030 -28 -19 0
-2031 29 0
-2031 19 0
2031 -29 -19 0
-2032 30 0
-2032 19 0
2032 -30 -19 0
-2033 31 0
-2033 19 0
2033 -31 -19 0
-2034 32 0
-2034 19 0
2034 -32 -19 0
-1906 2036 0
1906 -2036 0
-2035 0
1908 2035 -2038 0
-1908 -2035 -2038 0
-1908 2035 2038 0
1908 -2035 2038 0
-2037 2035 0
-2037 1908 0
2037 -2035 -1908 0
1910 2037 -2040 0
-1910 -2037 -2040 0
-1910 2037 2040 0
1910 -2037 2040 0
-2039 2037 0
-2039 1910 0
2039 -2037 -1910 0
1912 2039 -2042 0
-1912 -2039 -2042 0
-1912 2039 2042 0
1912 -2039 2042 0
-2041 2039 0
-2041 1912 0
2041 -2039 -1912 0
1914 2041 -2044 0
-1914 -2041 -2044 0
-1914 2041 2044 0
1914 -2041 2044 0
-2043 2041 0
-2043 1914 0
2043 -2041 -1914 0
1916 2043 -2046 0
-1916 -2043 -2046 0
-1916 2043 2046 0
1916 -2043 2046 0
-2045 2043 0
-2045 1916 0
2045 -2043 -1916 0
1918 2045 -2048 0
-1918 -2045 -2048 0
-1918 2045 2048 0
1918 -2045 2048 0
-2047 2045 0
-2047 1918 0
2047 -2045 -1918 0
1920 2047 -2050 0
-1920 -2047 -2050 0
-1920 2047 2050 0
1920 -2047 2050 0
-2049 2047 0
-2049 1920 0
2049 -2047 -1920 0
1922 2049 -2052 0
-1922 -2049 -2052 0
-1922 2049 2052 0
1922 -2049 2052 0
-2051 2049 0
-2051 1922 0
2051 -2049 -1922 0
1924 2051 -2054 0
-1924 -2051 -2054 0
-1924 2051 2054 0
1924 -2051 2054 0
-2053 2051 0
-2053 1924 0
2053 -2051 -1924 0
1926 2053 -2056 0
-1926 -2053 -2056 0
-1926 2053 2056 0
1926 -2053 2056 0
-2055 2053 0
-2055 1926 0
2055 -2053 -1926 0
1928 2055 -2058 0
-1928 -2055 -2058 0
-1928 2055 2058 0
1928 -2055 2058 0
-2057 2055 0
-2057 1928 0
2057 -2055 -1928 0
1930 2057 -2060 0
-1930 -2057 -2060 0
-1930 2057 2060 0
1930 -2057 2060 0
-2059 2057 0
-2059 1930 0
2059 -2057 -1930 0
1932 2059 -2062 0
-1932 -2059 -2062 0
-1932 2059 2062 0
1932 -2059 2062 0
-2061 2059 0
-2061 1932 0
2061 -2059 -1932 0
1934 2061 -2064 0
-1934 -2061 -2064 0
-1934 2061 2064 0
1934 -2061 2064 0
-2063 2061 0
-2063 1934 0
2063 -2061 -1934 0
1936 2063 -2066 0
-1936 -2063 -2066 0
-1936 2063 2066 0
1936 -2063 2066 0
-2065 2063 0
-2065 1936 0
2065 -2063 -1936 0
1938 2065 -2068 0
-1938 -2065 -2068 0
-1938 2065 2068 0
1938 -2065 2068 0
-2067 2065 0
-2067 1938 0
2067 -2065 -1938 0
1940 2067 -2070 0
-1940 -2067 -2070 0
-1940 2067 2070 0
1940 -2067 2070 0
-2069 2067 0
-2069 1940 0
2069 -2067 -1940 0
-2072 2069 1942 2003 0
-2072 2069 -1942 -2003 0
-2072 -2069 1942 -2003 0
2072 2069 1942 -2003 0
-2072 -2069 -1942 2003 0
2072 2069 -1942 2003 0
2072 -2069 1942 2003 0
2072 -2069 -1942 -2003 0
-2071 2069 1942 0
-2071 2069 2003 0
-2071 1942 2003 0
2071 -2069 -1942 0
2071 -2069 -2003 0
2071 -1942 -2003 0
-2074 2071 1944 2004 0
-2074 2071 -1944 -2004 0
-2074 -2071 1944 -2004 0
2074 2071 1944 -2004 0
-2074 -2071 -1944 2004 0
2074 2071 -1944 2004 0
2074 -2071 1944 2004 0
2074 -2071 -1944 -2004 0
-2073 2071 1944 0
-2073 2071 2004 0
-2073 1944 2004 0
2073 -2071 -1944 0
2073 -2071 -2004 0
2073 -1944 -2004 0
-2076 2073 1946 2005 0
-2076 2073 -1946 -2005 0
-2076 -2073 1946 -2005 0
2076 2073 1946 -2005 0
-2076 -2073 -1946 2005 0
2076 2073 -1946 2005 0
2076 -2073 1946 2005 0
2076 -2073 -1946 -2005 0
-2075 2073 1946 0
-2075 2073 2005 0
-2075 1946 2005 0
2075 -2073 -1946 0
2075 -2073 -2005 0
2075 -1946 -2005 0
-2078 2075 1948 2006 0
-2078 2075 -1948 -2006 0
-2078 -2075 1948 -2006 0
2078 2075 1948 -2006 0
-2078 -2075 -1948 2006 0
2078 2075 -1948 2006 0
2078 -2075 1948 2006 0
2078 -2075 -1948 -2006 0
-2077 2075 1948 0
-2077 2075 2006 0
-2077 1948 2006 0
2077 -2075 -1948 0
2077 -2075 -2006 0
2077 -1948 -2006 0
-2080 2077 1950 2007 0
-2080 2077 -1950 -2007 0
-2080 -2077 1950 -2007 0
2080 2077 1950 -2007 0
-2080 -2077 -1950 2007 0
2080 2077 -1950 2007 0
2080 -2077 1950 2007 0
2080 -2077 -1950 -2007 0
-2079 2077 1950 0
-2079 2077 2007 0
-2079 1950 2007 0
2079 -2077 -1950 0
2079 -2077 -2007 0
2079 -1950 -2007 0
-2082 2079 1952 2008 0
-2082 2079 -1952 -2008 0
-2082 -2079 1952 -2008 0
2082 2079 1952 -2008 0
-2082 -2079 -1952 2008 0
2082 2079 -1952 2008 0
2082 -2079 1952 2008 0
2082 -2079 -1952 -2008 0
-2081 2079 1952 0
-2081 2079 2008 0
-2081 1952 2008 0
2081 -2079 -1952 0
2081 -2079 -2008 0
2081 -1952 -2008 0
-2084 2081 1954 2009 0
-2084 2081 -1954 -2009 0
-2084 -2081 1954 -2009 0
2084 2081 1954 -2009 0
-2084 -2081 -1954 2009 0
2084 2081 -1954 2009 0
2084 -2081 1954 2009 0
2084 -2081 -1954 -2009 0
-2083 2081 1954 0
-2083 2081 2009 0
-2083 1954 2009 0
2083 -2081 -1954 0
2083 -2081 -2009 0
2083 -1954 -2009 0
-2086 2083 1956 2010 0
-2086 2083 -1956 -2010 0
-2086 -2083 1956 -2010 0
2086 2083 1956 -2010 0
-2086 -2083 -1956 2010 0
2086 2083 -1956 2010 0
2086 -2083 1956 2010 0
2086 -2083 -1956 -2010 0
-2085 2083 1956 0
-2085 2083 2010 0
-2085 1956 2010 0
2085 -2083 -1956 0
2085 -2083 -2010 0
2085 -1956 -2010 0
-2088 2085 1958 2011 0
-2088 2085 -1958 -2011 0
-2088 -2085 1958 -2011 0
2088 2085 1958 -2011 0
-2088 -2085 -1958 2011 0
2088 2085 -1958 2011 0
2088 -2085 1958 2011 0
2088 -2085 -1958 -2011 0
-2087 2085 1958 0
-2087 2085 2011 0
-2087 1958 2011 0
2087 -2085 -1958 0
2087 -2085 -2011 0
2087 -1958 -2011 0
-2090 2087 1960 2012 0
-2090 2087 -1960 -2012 0
-2090 -2087 1960 -2012 0
2090 2087 1960 -2012 0
-2090 -2087 -1960 2012 0
2090 2087 -1960 2012 0
2090 -2087 1960 2012 0
2090 -2087 -1960 -2012 0
-2089 2087 1960 0
-2089 2087 2012 0
-2089 1960 2012 0
2089 -2087 -1960 0
2089 -2087 -2012 0
2089 -1960 -2012 0
-2092 2089 1962 2013 0
-2092 2089 -1962 -2013 0
-2092 -2089 1962 -2013 0
2092 2089 1962 -2013 0
-2092 -2089 -1962 2013 0
2092 2089 -1962 2013 0
2092 -2089 1962 2013 0
2092 -2089 -1962 -2013 0
-2091 2089 1962 0
-2091 2089 2013 0
-2091 1962 2013 0
2091 -2089 -1962 0
2091 -2089 -2013 0
2091 -1962 -2013 0
-2094 2091 1964 2014 0
-2094 2091 -1964 -2014 0
-2094 -2091 1964 -2014 0
2094 2091 1964 -2014 0
-2094 -2091 -1964 2014 0
2094 2091 -1964 2014 0
2094 -2091 1964 2014 0
2094 -2091 -1964 -2014 0
-2093 2091 1964 0
-2093 2091 2014 0
-2093 1964 2014 0
2093 -2091 -1964 0
2093 -2091 -2014 0
2093 -1964 -2014 0
-2096 2093 1966 2015 0
-2096 2093 -1966 -2015 0
-2096 -2093 1966 -2015 0
2096 2093 1966 -2015 0
-2096 -2093 -1966 2015 0
2096 2093 -1966 2015 0
2096 -2093 1966 2015 0
2096 -2093 -1966 -2015 0
-2095 2093 1966 0
-2095 2093 2015 0
-2095 1966 2015 0
2095 -2093 -1966 0
2095 -2093 -2015 0
2095 -1966 -2015 0
-2098 2095 1968 2016 0
-2098 2095 -1968 -2016 0
-2098 -2095 1968 -2016 0
2098 2095 1968 -2016 0
-2098 -2095 -1968 2016 0
2098 2095 -1968 2016 0
2098 -2095 1968 2016 0
2098 -2095 -1968 -2016 0
-2097 2095 1968 0
-2097 2095 2016 0
-2097 1968 2016 0
2097 -2095 -1968 0
2097 -2095 -2016 0
2097 -1968 -2016 0
-2100 2097 1970 2017 0
-2100 2097 -1970 -2017 0
-2100 -2097 1970 -2017 0
2100 2097 1970 -2017 0
-2100 -2097 -1970 2017 0
2100 2097 -1970 2017 0
2100 -2097 1970 2017 0
2100 -2097 -1970 -2017 0
-2099 2097 1970 0
-2099 2097 2017 0
-2099 1970 2017 0
2099 -2097 -1970 0
2099 -2097 -2017 0
2099 -1970 -2017 0
-2102 2099 1972 2018 0
-2102 2099 -1972 -2018 0
-2102 -2099 1972 -2018 0
2102 2099 1972 -2018 0
-2102 -2099 -1972 2018 0
2102 2099 -1972 2018 0
2102 -2099 1972 2018 0
2102 -2099 -1972 -2018 0
-2101 2099 1972 0
-2101 2099 2018 0
-2101 1972 2018 0
2101 -2099 -1972 0
2101 -2099 -2018 0
2101 -1972 -2018 0
-2104 2101 1974 2019 0
-2104 2101 -1974 -2019 0
-2104 -2101 1974 -2019 0
2104 2101 1974 -2019 0
-2104 -2101 -1974 2019 0
2104 2101 -1974 2019 0
2104 -2101 1974 2019 0
2104 -2101 -1974 -2019 0
-2103 2101 1974 0
-2103 2101 2019 0
-2103 1974 2019 0
2103 -2101 -1974 0
2103 -2101 -2019 0
2103 -1974 -2019 0
-2106 2103 1976 2020 0
-2106 2103 -1976 -2020 0
-2106 -2103 1976 -2020 0
2106 2103 1976 -2020 0
-2106 -2103 -1976 2020 0
2106 2103 -1976 2020 0
2106 -2103 1976 2020 0
2106 -2103 -1976 -2020 0
-2105 2103 1976 0
-2105 2103 2020 0
-2105 1976 2020 0
2105 -2103 -1976 0
2105 -2103 -2020 0
2105 -1976 -2020 0
-2108 2105 1978 2021 0
-2108 2105 -1978 -2021 0
-2108 -2105 1978 -2021 0
2108 2105 1978 -2021 0
-2108 -2105 -1978 2021 0
2108 2105 -1978 2021 0
2108 -2105 1978 2021 0
2108 -2105 -1978 -2021 0
-2107 2105 1978 0
-2107 2105 2021 0
-2107 1978 2021 0
2107 -2105 -1978 0
2107 -2105 -2021 0
2107 -1978 -2021 0
-2110 2107 1980 2022 0
-2110 2107 -1980 -2022 0
-2110 -2107 1980 -2022 0
2110 2107 1980 -2022 0
-2110 -2107 -1980 2022 0
2110 2107 -1980 2022 0
2110 -2107 1980 2022 0
2110 -2107 -1980 -2022 0
-2109 2107 1980 0
-2109 2107 2022 0
-2109 1980 2022 0
2109 -2107 -1980 0
2109 -2107 -2022 0
2109 -1980 -2022 0
-2112 2109 1982 2023 0
-2112 2109 -1982 -2023 0
-2112 -2109 1982 -2023 0
2112 2109 1982 -2023 0
-2112 -2109 -1982 2023 0
2112 2109 -1982 2023 0
2112 -2109 1982 2023 0
2112 -2109 -1982 -2023 0
-2111 2109 1982 0
-2111 2109 2023 0
-2111 1982 2023 0
2111 -2109 -1982 0
2111 -2109 -2023 0
2111 -1982 -2023 0
-2114 2111 1984 2024 0
-2114 2111 -1984 -2024 0
-2114 -2111 1984 -2024 0
2114 2111 1984 -2024 0
-2114 -2111 -1984 2024 0
2114 2111 -1984 2024 0
2114 -2111 1984 2024 0
2114 -2111 -1984 -2024 0
-2113 2111 1984 0
-2113 2111 2024 0
-2113 1984 2024 0
2113 -2111 -1984 0
2113 -2111 -2024 0
2113 -1984 -2024 0
-2116 2113 1986 2025 0
-2116 2113 -1986 -2025 0
-2116 -2113 1986 -2025 0
2116 2113 1986 -2025 0
-2116 -2113 -1986 2025 0
2116 2113 -1986 2025 0
2116 -2113 1986 2025 0
2116 -2113 -1986 -2025 0
-2115 2113 1986 0
-2115 2113 2025 0
-2115 1986 2025 0
2115 -2113 -1986 0
2115 -2113 -2025 0
2115 -1986 -2025 0
-2118 2115 1988 2026 0
-2118 2115 -1988 -2026 0
-2118 -2115 1988 -2026 0
2118 2115 1988 -2026 0
-2118 -2115 -1988 2026 0
2118 2115 -1988 2026 0
2118 -2115 1988 2026 0
2118 -2115 -1988 -2026 0
-2117 2115 1988 0
-2117 2115 2026 0
-2117 1988 2026 0
2117 -2115 -1988 0
2117 -2115 -2026 0
2117 -1988 -2026 0
-2120 2117 1990 2027 0
-2120 2117 -1990 -2027 0
-2120 -2117 1990 -2027 0
2120 2117 1990 -2027 0
-2120 -2117 -1990 2027 0
2120 2117 -1990 2027 0
2120 -2117 1990 2027 0
2120 -2117 -1990 -2027 0
-2119 2117 1990 0
-2119 2117 2027 0
-2119 1990 2027 0
2119 -2117 -1990 0
2119 -2117 -2027 0
2119 -1990 -2027 0
-2122 2119 1992 2028 0
-2122 2119 -1992 -2028 0
-2122 -2119 1992 -2028 0
2122 2119 1992 -2028 0
-2122 -2119 -1992 2028 0
2122 2119 -1992 2028 0
2122 -2119 1992 2028 0
2122 -2119 -1992 -2028 0
-2121 2119 1992 0
-2121 2119 2028 0
-2121 1992 2028 0
2121 -2119 -1992 0
2121 -2119 -2028 0
2121 -1992 -2028 0
-2124 2121 1994 2029 0
-2124 2121 -1994 -2029 0
-2124 -2121 1994 -2029 0
2124 2121 1994 -2029 0
-2124 -2121 -1994 2029 0
2124 2121 -1994 2029 0
2124 -2121 1994 2029 0
2124 -2121 -1994 -2029 0
-2123 2121 1994 0
-2123 2121 2029 0
-2123 1994 2029 0
2123 -2121 -1994 0
2123 -2121 -2029 0
2123 -1994 -2029 0
-2126 2123 1996 2030 0
-2126 2123 -1996 -2030 0
-2126 -2123 1996 -2030 0
2126 2123 1996 -2030 0
-2126 -2123 -1996 2030 0
2126 2123 -1996 2030 0
2126 -2123 1996 2030 0
2126 -2123 -1996 -2030 0
-2125 2123 1996 0
-2125 2123 2030 0
-2125 1996 2030 0
2125 -2123 -1996 0
2125 -2123 -2030 0
2125 -1996 -2030 0
-2128 2125 1998 2031 0
-2128 2125 -1998 -2031 0
-2128 -2125 1998 -2031 0
2128 2125 1998 -2031 0
-2128 -2125 -1998 2031 0
2128 2125 -1998 2031 0
2128 -2125 1998 2031 0
2128 -2125 -1998 -2031 0
-2127 2125 1998 0
-2127 2125 2031 0
-2127 1998 2031 0
2127 -2125 -1998 0
2127 -2125 -2031 0
2127 -1998 -2031 0
-2130 2127 2000 2032 0
-2130 2127 -2000 -2032 0
-2130 -2127 2000 -2032 0
2130 2127 2000 -2032 0
-2130 -2127 -2000 2032 0
2130 2127 -2000 2032 0
2130 -2127 2000 2032 0
2130 -2127 -2000 -2032 0
-2129 2127 2000 0
-2129 2127 2032 0
-2129 2000 2032 0
2129 -2127 -2000 0
2129 -2127 -2032 0
2129 -2000 -2032 0
-2132 2129 2002 2033 0
-2132 2129 -2002 -2033 0
-2132 -2129 2002 -2033 0
2132 2129 2002 -2033 0
-2132 -2129 -2002 2033 0
2132 2129 -2002 2033 0
2132 -2129 2002 2033 0
2132 -2129 -2002 -2033 0
-2131 2129 2002 0
-2131 2129 2033 0
-2131 2002 2033 0
2131 -2129 -2002 0
2131 -2129 -2033 0
2131 -2002 -2033 0
-2134 2131 2001 2034 0
-2134 2131 -2001 -2034 0
-2134 -2131 2001 -2034 0
2134 2131 2001 -2034 0
-2134 -2131 -2001 2034 0
2134 2131 -2001 2034 0
2134 -2131 2001 2034 0
2134 -2131 -2001 -2034 0
-2133 2131 2001 0
-2133 2131 2034 0
-2133 2001 2034 0
2133 -2131 -2001 0
2133 -2131 -2034 0
2133 -2001 -2034 0
-2135 1 0
-2135 20 0
2135 -1 -20 0
-2136 2 0
-2136 20 0
2136 -2 -20 0
-2137 3 0
-2137 20 0
2137 -3 -20 0
-2138 4 0
-2138 20 0
2138 -4 -20 0
-2139 5 0
-2139 20 0
2139 -5 -20 0
-2140 6 0
-2140 20 0
2140 -6 -20 0
-2141 7 0
-2141 20 0
2141 -7 -20 0
-2142 8 0
-2142 20 0
2142 -8 -20 0
-2143 9 0
-2143 20 0
2143 -9 -20 0
-2144 10 0
-2144 20 0
2144 -10 -20 0
-2145 11 0
-2145 20 0
2145 -11 -20 0
-2146 12 0
-2146 20 0
2146 -12 -20 0
-2147 13 0
-2147 20 0
2147 -13 -20 0
-2148 14 0
-2148 20 0
2148 -14 -20 0
-2149 15 0
-2149 20 0
2149 -15 -20 0
-2150 16 0
-2150 20 0
2150 -16 -20 0
-2151 17 0
-2151 20 0
2151 -17 -20 0
-2152 18 0
-2152 20 0
2152 -18 -20 0
-2153 19 0
-2153 20 0
2153 -19 -20 0
-2154 20 0
2154 -20 0
-2155 21 0
-2155 20 0
2155 -21 -20 0
-2156 22 0
-2156 20 0
2156 -22 -20 0
-2157 23 0
-2157 20 0
2157 -23 -20 0
-2158 24 0
-2158 20 0
2158 -24 -20 0
-2159 25 0
-2159 20 0
2159 -25 -20 0
-2160 26 0
-2160 20 0
2160 -26 -20 0
-2161 27 0
-2161 20 0
2161 -27 -20 0
-2162 28 0
-2162 20 0
2162 -28 -20 0
-2163 29 0
-2163 20 0
2163 -29 -20 0
-2164 30 0
-2164 20 0
2164 -30 -20 0
-2165 31 0
-2165 20 0
2165 -31 -20 0
-2166 32 0
-2166 20 0
2166 -32 -20 0
-2036 2168 0
2036 -2168 0
-2167 0
2038 2167 -2170 0
-2038 -2167 -2170 0
-2038 2167 2170 0
2038 -2167 2170 0
-2169 2167 0
-2169 2038 0
2169 -2167 -2038 0
2040 2169 -2172 0
-2040 -2169 -2172 0
-2040 2169 2172 0
2040 -2169 2172 0
-2171 2169 0
-2171 2040 0
2171 -2169 -2040 0
2042 2171 -2174 0
-2042 -2171 -2174 0
-2042 2171 2174 0
2042 -2171 2174 0
-2173 2171 0
-2173 2042 0
2173 -2171 -2042 0
2044 2173 -2176 0
-2044 -2173 -2176 0
-2044 2173 2176 0
2044 -2173 2176 0
-2175 2173 0
-2175 2044 0
2175 -2173 -2044 0
2046 2175 -2178 0
-2046 -2175 -2178 0
-2046 2175 2178 0
2046 -2175 2178 0
-2177 2175 0
-2177 2046 0
2177 -2175 -2046 0
2048 2177 -2180 0
-2048 -2177 -2180 0
-2048 2177 2180 0
2048 -2177 2180 0
-2179 2177 0
-2179 2048 0
2179 -2177 -2048 0
2050 2179 -2182 0
-2050 -2179 -2182 0
-2050 2179 2182 0
2050 -2179 2182 0
-2181 2179 0
-2181 2050 0
2181 -2179 -2050 0
2052 2181 -2184 0
-2052 -2181 -2184 0
-2052 2181 2184 0
2052 -2181 2184 0
-2183 2181 0
-2183 2052 0
2183 -2181 -2052 0
2054 2183 -2186 0
-2054 -2183 -2186 0
-2054 2183 2186 0
2054 -2183 2186 0
-2185 2183 0
-2185 2054 0
2185 -2183 -2054 0
2056 2185 -2188 0
-2056 -2185 -2188 0
-2056 2185 2188 0
2056 -2185 2188 0
-2187 2185 0
-2187 2056 0
2187 -2185 -2056 0
2058 2187 -2190 0
-2058 -2187 -2190 0
-2058 2187 2190 0
2058 -2187 2190 0
-2189 2187 0
-2189 2058 0
2189 -2187 -2058 0
2060 2189 -2192 0
-2060 -2189 -2192 0
-2060 2189 2192 0
2060 -2189 2192 0
-2191 2189 0
-2191 2060 0
2191 -2189 -2060 0
2062 2191 -2194 0
-2062 -2191 -2194 0
-2062 2191 2194 0
2062 -2191 2194 0
-2193 2191 0
-2193 2062 0
2193 -2191 -2062 0
2064 2193 -2196 0
-2064 -2193 -2196 0
-2064 2193 2196 0
2064 -2193 2196 0
-2195 2193 0
-2195 2064 0
2195 -2193 -2064 0
2066 2195 -2198 0
-2066 -2195 -2198 0
-2066 2195 2198 0
2066 -2195 2198 0
-2197 2195 0
-2197 2066 0
2197 -2195 -2066 0
2068 2197 -2200 0
-2068 -2197 -2200 0
-2068 2197 2200 0
2068 -2197 2200 0
-2199 2197 0
-2199 2068 0
2199 -2197 -2068 0
2070 2199 -2202 0
-2070 -2199 -2202 0
-2070 2199 2202 0
2070 -2199 2202 0
-2201 2199 0
-2201 2070 0
2201 -2199 -2070 0
2072 2201 -2204 0
-2072 -2201 -2204 0
-2072 2201 2204 0
2072 -2201 2204 0
-2203 2201 0
-2203 2072 0
2203 -2201 -2072 0
-2206 2203 2074 2135 0
-2206 2203 -2074 -2135 0
-2206 -2203 2074 -2135 0
2206 2203 2074 -2135 0
-2206 -2203 -2074 2135 0
2206 2203 -2074 2135 0
2206 -2203 2074 2135 0
2206 -2203 -2074 -2135 0
-2205 2203 2074 0
-2205 2203 2135 0
-2205 2074 2135 0
2205 -2203 -2074 0
2205 -2203 -2135 0
2205 -2074 -2135 0
-2208 2205 2076 2136 0
-2208 2205 -2076 -2136 0
-2208 -2205 2076 -2136 0
2208 2205 2076 -2136 0
-2208 -2205 -2076 2136 0
2208 2205 -2076 2136 0
2208 -2205 2076 2136 0
2208 -2205 -2076 -2136 0
-2207 2205 2076 0
-2207 2205 2136 0
-2207 2076 2136 0
2207 -2205 -2076 0
2207 -2205 -2136 0
2207 -2076 -2136 0
-2210 2207 2078 2137 0
-2210 2207 -2078 -2137 0
-2210 -2207 2078 -2137 0
2210 2207 2078 -2137 0
-2210 -2207 -2078 2137 0
2210 2207 -2078 2137 0
2210 -2207 2078 2137 0
2210 -2207 -2078 -2137 0
-2209 2207 2078 0
-2209 2207 2137 0
-2209 2078 2137 0
2209 -2207 -2078 0
2209 -2207 -2137 0
2209 -2078 -2137 0
-2212 2209 2080 2138 0
-2212 2209 -2080 -2138 0
-2212 -2209 2080 -2138 0
2212 2209 2080 -2138 0
-2212 -2209 -2080 2138 0
2212 2209 -2080 2138 0
2212 -2209 2080 2138 0
2212 -2209 -2080 -2138 0
-2211 2209 2080 0
-2211 2209 2138 0
-2211 2080 2138 0
2211 -2209 -2080 0
2211 -2209 -2138 0
2211 -2080 -2138 0
-2214 2211 2082 2139 0
-2214 2211 -2082 -2139 0
-2214 -2211 2082 -2139 0
2214 2211 2082 -2139 0
-2214 -2211 -2082 2139 0
2214 2211 -2082 2139 0
2214 -2211 2082 2139 0
2214 -2211 -2082 -2139 0
-2213 2211 2082 0
-2213 2211 2139 0
-2213 2082 2139 0
2213 -2211 -2082 0
2213 -2211 -2139 0
2213 -2082 -2139 0
-2216 2213 2084 2140 0
-2216 2213 -2084 -2140 0
-2216 -2213 2084 -2140 0
2216 2213 2084 -2140 0
-2216 -2213 -2084 2140 0
2216 2213 -2084 2140 0
2216 -2213 2084 2140 0
2216 -2213 -2084 -2140 0
-2215 2213 2084 0
-2215 2213 2140 0
-2215 2084 2140 0
2215 -2213 -2084 0
2215 -2213 -2140 0
2215 -2084 -2140 0
-2218 2215 2086 2141 0
-2218 2215 -2086 -2141 0
-2218 -2215 2086 -2141 0
2218 2215 2086 -2141 0
-2218 -2215 -2086 2141 0
2218 2215 -2086 2141 0
2218 -2215 2086 2141 0
2218 -2215 -2086 -2141 0
-2217 2215 2086 0
-2217 2215 2141 0
-2217 2086 2141 0
2217 -2215 -2086 0
2217 -2215 -2141 0
2217 -2086 -2141 0
-2220 2217 2088 2142 0
-2220 2217 -2088 -2142 0
-2220 -2217 2088 -2142 0
2220 2217 2088 -2142 0
-2220 -2217 -2088 2142 0
2220 2217 -2088 2142 0
2220 -2217 2088 2142 0
2220 -2217 -2088 -2142 0
-2219 2217 2088 0
-2219 2217 2142 0
-2219 2088 2142 0
2219 -2217 -2088 0
2219 -2217 -2142 0
2219 -2088 -2142 0
-2222 2219 2090 2143 0
-2222 2219 -2090 -2143 0
-2222 -2219 2090 -2143 0
2222 2219 2090 -2143 0
-2222 -2219 -2090 2143 0
2222 2219 -2090 2143 0
2222 -2219 2090 2143 0
2222 -2219 -2090 -2143 0
-2221 2219 2090 0
-2221 2219 2143 0
-2221 2090 2143 0
2221 -2219 -2090 0
2221 -2219 -2143 0
2221 -2090 -2143 0
-2224 2221 2092 2144 0
-2224 2221 -2092 -2144 0
-2224 -2221 2092 -2144 0
2224 2221 2092 -2144 0
-2224 -2221 -2092 2144 0
2224 2221 -2092 2144 0
2224 -2221 2092 2144 0
2224 -2221 -2092 -2144 0
-2223 2221 2092 0
-2223 2221 2144 0
-2223 2092 2144 0
2223 -2221 -2092 0
2223 -2221 -2144 0
2223 -2092 -2144 0
-2226 2223 2094 2145 0
-2226 2223 -2094 -2145 0
-2226 -2223 2094 -2145 0
2226 2223 2094 -2145 0
-2226 -2223 -2094 2145 0
2226 2223 -2094 2145 0
2226 -2223 2094 2145 0
2226 -2223 -2094 -2145 0
-2225 2223 2094 0
-2225 2223 2145 0
-2225 2094 2145 0
2225 -2223 -2094 0
2225 -2223 -2145 0
2225 -2094 -2145 0
-2228 2225 2096 2146 0
-2228 2225 -2096 -2146 0
-2228 -2225 2096 -2146 0
2228 2225 2096 -2146 0
-2228 -2225 -2096 2146 0
2228 2225 -2096 2146 0
2228 -2225 2096 2146 0
2228 -2225 -2096 -2146 0
-2227 2225 2096 0
-2227 2225 2146 0
-2227 2096 2146 0
2227 -2225 -2096 0
2227 -2225 -2146 0
2227 -2096 -2146 0
-2230 2227 2098 2147 0
-2230 2227 -2098 -2147 0
-2230 -2227 2098 -2147 0
2230 2227 2098 -2147 0
-2230 -2227 -2098 2147 0
2230 2227 -2098 2147 0
2230 -2227 2098 2147 0
2230 -2227 -2098 -2147 0
-2229 2227 2098 0
-2229 2227 2147 0
-2229 2098 2147 0
2229 -2227 -2098 0
2229 -2227 -2147 0
2229 -2098 -2147 0
-2232 2229 2100 2148 0
-2232 2229 -2100 -2148 0
-2232 -2229 2100 -2148 0
2232 2229 2100 -2148 0
-2232 -2229 -2100 2148 0
2232 2229 -2100 2148 0
2232 -2229 2100 2148 0
2232 -2229 -2100 -2148 0
-2231 2229 2100 0
-2231 2229 2148 0
-2231 2100 2148 0
2231 -2229 -2100 0
2231 -2229 -2148 0
2231 -2100 -2148 0
-2234 2231 2102 2149 0
-2234 2231 -2102 -2149 0
-2234 -2231 2102 -2149 0
2234 2231 2102 -2149 0
-2234 -2231 -2102 2149 0
2234 2231 -2102 2149 0
2234 -2231 2102 2149 0
2234 -2231 -2102 -2149 0
-2233 2231 2102 0
-2233 2231 2149 0
-2233 2102 2149 0
2233 -2231 -2102 0
2233 -2231 -2149 0
2233 -2102 -2149 0
-2236 2233 2104 2150 0
-2236 2233 -2104 -2150 0
-2236 -2233 2104 -2150 0
2236 2233 2104 -2150 0
-2236 -2233 -2104 2150 0
2236 2233 -2104 2150 0
2236 -2233 2104 2150 0
2236 -2233 -2104 -2150 0
-2235 2233 2104 0
-2235 2233 2150 0
-2235 2104 2150 0
2235 -2233 -2104 0
2235 -2233 -2150 0
2235 -2104 -2150 0
-2238 2235 2106 2151 0
-2238 2235 -2106 -2151 0
-2238 -2235 2106 -2151 0
2238 2235 2106 -2151 0
-2238 -2235 -2106 2151 0
2238 2235 -2106 2151 0
2238 -2235 2106 2151 0
2238 -2235 -2106 -2151 0
-2237 2235 2106 0
-2237 2235 2151 0
-2237 2106 2151 0
2237 -2235 -2106 0
2237 -2235 -2151 0
2237 -2106 -2151 0
-2240 2237 2108 2152 0
-2240 2237 -2108 -2152 0
-2240 -2237 2108 -2152 0
2240 2237 2108 -2152 0
-2240 -2237 -2108 2152 0
2240 2237 -2108 2152 0
2240 -2237 2108 2152 0
2240 -2237 -2108 -2152 0
-2239 2237 2108 0
-2239 2237 2152 0
-2239 2108 2152 0
2239 -2237 -2108 0
2239 -2237 -2152 0
2239 -2108 -2152 0
-2242 2239 2110 2153 0
-2242 2239 -2110 -2153 0
-2242 -2239 2110 -2153 0
2242 2239 2110 -2153 0
-2242 -2239 -2110 2153 0
2242 2239 -2110 2153 0
2242 -2239 2110 2153 0
2242 -2239 -2110 -2153 0
-2241 2239 2110 0
-2241 2239 2153 0
-2241 2110 2153 0
2241 -2239 -2110 0
2241 -2239 -2153 0
2241 -2110 -2153 0
-2244 2241 2112 2154 0
-2244 2241 -2112 -2154 0
-2244 -2241 2112 -2154 0
2244 2241 2112 -2154 0
-2244 -2241 -2112 2154 0
2244 2241 -2112 2154 0
2244 -2241 2112 2154 0
2244 -2241 -2112 -2154 0
-2243 2241 2112 0
-2243 2241 2154 0
-2243 2112 2154 0
2243 -2241 -2112 0
2243 -2241 -2154 0
2243 -2112 -2154 0
-2246 2243 2114 2155 0
-2246 2243 -2114 -2155 0
-2246 -2243 2114 -2155 0
2246 2243 2114 -2155 0
-2246 -2243 -2114 2155 0
2246 2243 -2114 2155 0
2246 -2243 2114 2155 0
2246 -2243 -2114 -2155 0
-2245 2243 2114 0
-2245 2243 2155 0
-2245 2114 2155 0
2245 -2243 -2114 0
2245 -2243 -2155 0
2245 -2114 -2155 0
-2248 2245 2116 2156 0
-2248 2245 -2116 -2156 0
-2248 -2245 2116 -2156 0
2248 2245 2116 -2156 0
-2248 -2245 -2116 2156 0
2248 2245 -2116 2156 0
2248 -2245 2116 2156 0
2248 -2245 -2116 -2156 0
-2247 2245 2116 0
-2247 2245 2156 0
-2247 2116 2156 0
2247 -2245 -2116 0
2247 -2245 -2156 0
2247 -2116 -2156 0
-2250 2247 2118 2157 0
-2250 2247 -2118 -2157 0
-2250 -2247 2118 -2157 0
2250 2247 2118 -2157 0
-2250 -2247 -2118 2157 0
2250 2247 -2118 2157 0
2250 -2247 2118 2157 0
2250 -2247 -2118 -2157 0
-2249 2247 2118 0
-2249 2247 2157 0
-2249 2118 2157 0
2249 -2247 -2118 0
2249 -2247 -2157 0
2249 -2118 -2157 0
-2252 2249 2120 2158 0
-2252 2249 -2120 -2158 0
-2252 -2249 2120 -2158 0
2252 2249 2120 -2158 0
-2252 -2249 -2120 2158 0
2252 2249 -2120 2158 0
2252 -2249 2120 2158 0
2252 -2249 -2120 -2158 0
-2251 2249 2120 0
-2251 2249 2158 0
-2251 2120 2158 0
2251 -2249 -2120 0
2251 -2249 -2158 0
2251 -2120 -2158 0
-2254 2251 2122 2159 0
-2254 2251 -2122 -2159 0
-2254 -2251 2122 -2159 0
2254 2251 2122 -2159 0
-2254 -2251 -2122 2159 0
2254 2251 -2122 2159 0
2254 -2251 2122 2159 0
2254 -2251 -2122 -2159 0
-2253 2251 2122 0
-2253 2251 2159 0
-2253 2122 2159 0
2253 -2251 -2122 0
2253 -2251 -2159 0
2253 -2122 -2159 0
-2256 2253 2124 2160 0
-2256 2253 -2124 -2160 0
-2256 -2253 2124 -2160 0
2256 2253 2124 -2160 0
-2256 -2253 -2124 2160 0
2256 2253 -2124 2160 0
2256 -2253 2124 2160 0
2256 -2253 -2124 -2160 0
-2255 2253 2124 0
-2255 2253 2160 0
-2255 2124 2160 0
2255 -2253 -2124 0
2255 -2253 -2160 0
2255 -2124 -2160 0
-2258 2255 2126 2161 0
-2258 2255 -2126 -2161 0
-2258 -2255 2126 -2161 0
2258 2255 2126 -2161 0
-2258 -2255 -2126 2161 0
2258 2255 -2126 2161 0
2258 -2255 2126 2161 0
2258 -2255 -2126 -2161 0
-2257 2255 2126 0
-2257 2255 2161 0
-2257 2126 2161 0
2257 -2255 -2126 0
2257 -2255 -2161 0
2257 -2126 -2161 0
-2260 2257 2128 2162 0
-2260 2257 -2128 -2162 0
-2260 -2257 2128 -2162 0
2260 2257 2128 -2162 0
-2260 -2257 -2128 2162 0
2260 2257 -2128 2162 0
2260 -2257 2128 2162 0
2260 -2257 -2128 -2162 0
-2259 2257 2128 0
-2259 2257 2162 0
-2259 2128 2162 0
2259 -2257 -2128 0
2259 -2257 -2162 0
2259 -2128 -2162 0
-2262 2259 2130 2163 0
-2262 2259 -2130 -2163 0
-2262 -2259 2130 -2163 0
2262 2259 2130 -2163 0
-2262 -2259 -2130 2163 0
2262 2259 -2130 2163 0
2262 -2259 2130 2163 0
2262 -2259 -2130 -2163 0
-2261 2259 2130 0
-2261 2259 2163 0
-2261 2130 2163 0
2261 -2259 -2130 0
2261 -2259 -2163 0
2261 -2130 -2163 0
-2264 2261 2132 2164 0
-2264 2261 -2132 -2164 0
-2264 -2261 2132 -2164 0
2264 2261 2132 -2164 0
-2264 -2261 -2132 2164 0
2264 2261 -2132 2164 0
2264 -2261 2132 2164 0
2264 -2261 -2132 -2164 0
-2263 2261 2132 0
-2263 2261 2164 0
-2263 2132 2164 0
2263 -2261 -2132 0
2263 -2261 -2164 0
2263 -2132 -2164 0
-2266 2263 2134 2165 0
-2266 2263 -2134 -2165 0
-2266 -2263 2134 -2165 0
2266 2263 2134 -2165 0
-2266 -2263 -2134 2165 0
2266 2263 -2134 2165 0
2266 -2263 2134 2165 0
2266 -2263 -2134 -2165 0
-2265 2263 2134 0
-2265 2263 2165 0
-2265 2134 2165 0
2265 -2263 -2134 0
2265 -2263 -2165 0
2265 -2134 -2165 0
-2268 2265 2133 2166 0
-2268 2265 -2133 -2166 0
-2268 -2265 2133 -2166 0
2268 2265 2133 -2166 0
-2268 -2265 -2133 2166 0
2268 2265 -2133 2166 0
2268 -2265 2133 2166 0
2268 -2265 -2133 -2166 0
-2267 2265 2133 0
-2267 2265 2166 0
-2267 2133 2166 0
2267 -2265 -2133 0
2267 -2265 -2166 0
2267 -2133 -2166 0
-2269 1 0
-2269 21 0
2269 -1 -21 0
-2270 2 0
-2270 21 0
2270 -2 -21 0
-2271 3 0
-2271 21 0
2271 -3 -21 0
-2272 4 0
-2272 21 0
2272 -4 -21 0
-2273 5 0
-2273 21 0
2273 -5 -21 0
-2274 6 0
-2274 21 0
2274 -6 -21 0
-2275 7 0
-2275 21 0
2275 -7 -21 0
-2276 8 0
-2276 21 0
2276 -8 -21 0
-2277 9 0
-2277 21 0
2277 -9 -21 0
-2278 10 0
-2278 21 0
2278 -10 -21 0
-2279 11 0
-2279 21 0
2279 -11 -21 0
-2280 12 0
-2280 21 0
2280 -12 -21 0
-2281 13 0
-2281 21 0
2281 -13 -21 0
-2282 14 0
-2282 21 0
2282 -14 -21 0
-2283 15 0
-2283 21 0
2283 -15 -21 0
-2284 16 0
-2284 21 0
2284 -16 -21 0
-2285 17 0
-2285 21 0
2285 -17 -21 0
-2286 18 0
-2286 21 0
2286 -18 -21 0
-2287 19 0
-2287 21 0
2287 -19 -21 0
-2288 20 0
-2288 21 0
2288 -20 -21 0
-2289 21 0
2289 -21 0
-2290 22 0
-2290 21 0
2290 -22 -21 0
-2291 23 0
-2291 21 0
2291 -23 -21 0
-2292 24 0
-2292 21 0
2292 -24 -21 0
-2293 25 0
-2293 21 0
2293 -25 -21 0
-2294 26 0
-2294 21 0
2294 -26 -21 0
-2295 27 0
-2295 21 0
2295 -27 -21 0
-2296 28 0
-2296 21 0
2296 -28 -21 0
-2297 29 0
-2297 21 0
2297 -29 -21 0
-2298 30 0
-2298 21 0
2298 -30 -21 0
-2299 31 0
-2299 21 0
2299 -31 -21 0
-2300 32 0
-2300 21 0
2300 -32 -21 0
-2168 2302 0
2168 -2302 0
-2301 0
2170 2301 -2304 0
-2170 -2301 -2304 0
-2170 2301 2304 0
2170 -2301 2304 0
-2303 2301 0
-2303 2170 0
2303 -2301 -2170 0
2172 2303 -2306 0
-2172 -2303 -2306 0
-2172 2303 2306 0
2172 -2303 2306 0
-2305 2303 0
-2305 2172 0
2305 -2303 -2172 0
2174 2305 -2308 0
-2174 -2305 -2308 0
-2174 2305 2308 0
2174 -2305 2308 0
-2307 2305 0
-2307 2174 0
2307 -2305 -2174 0
2176 2307 -2310 0
-2176 -2307 -2310 0
-2176 2307 2310 0
2176 -2307 2310 0
-2309 2307 0
-2309 2176 0
2309 -2307 -2176 0
2178 2309 -2312 0
-2178 -2309 -2312 0
-2178 2309 2312 0
2178 -2309 2312 0
-2311 2309 0
-2311 2178 0
2311 -2309 -2178 0
2180 2311 -2314 0
-2180 -2311 -2314 0
-2180 2311 2314 0
2180 -2311 2314 0
-2313 2311 0
-2313 2180 0
2313 -2311 -2180 0
2182 2313 -2316 0
-2182 -2313 -2316 0
-2182 2313 2316 0
2182 -2313 2316 0
-2315 2313 0
-2315 2182 0
2315 -2313 -2182 0
2184 2315 -2318 0
-2184 -2315 -2318 0
-2184 2315 2318 0
2184 -2315 2318 0
-2317 2315 0
-2317 2184 0
2317 -2315 -2184 0
2186 2317 -2320 0
-2186 -2317 -2320 0
-2186 2317 2320 0
2186 -2317 2320 0
-2319 2317 0
-2319 2186 0
2319 -2317 -2186 0
2188 2319 -2322 0
-2188 -2319 -2322 0
-2188 2319 2322 0
2188 -2319 2322 0
-2321 2319 0
-2321 2188 0
2321 -2319 -2188 0
2190 2321 -2324 0
-2190 -2321 -2324 0
-2190 2321 2324 0
2190 -2321 2324 0
-2323 2321 0
-2323 2190 0
2323 -2321 -2190 0
2192 2323 -2326 0
-2192 -2323 -2326 0
-2192 2323 2326 0
2192 -2323 2326 0
-2325 2323 0
-2325 2192 0
2325 -2323 -2192 0
2194 2325 -2328 0
-2194 -2325 -2328 0
-2194 2325 2328 0
2194 -2325 2328 0
-2327 2325 0
-2327 2194 0
2327 -2325 -2194 0
2196 2327 -2330 0
-2196 -2327 -2330 0
-2196 2327 2330 0
2196 -2327 2330 0
-2329 2327 0
-2329 2196 0
2329 -2327 -2196 0
2198 2329 -2332 0
-2198 -2329 -2332 0
-2198 2329 2332 0
2198 -2329 2332 0
-2331 2329 0
-2331 2198 0
2331 -2329 -2198 0
2200 2331 -2334 0
-2200 -2331 -2334 0
-2200 2331 2334 0
2200 -2331 2334 0
-2333 2331 0
-2333 2200 0
2333 -2331 -2200 0
2202 2333 -2336 0
-2202 -2333 -2336 0
-2202 2333 2336 0
2202 -2333 2336 0
-2335 2333 0
-2335 2202 0
2335 -2333 -2202 0
2204 2335 -2338 0
-2204 -2335 -2338 0
-2204 2335 2338 0
2204 -2335 2338 0
-2337 2335 0
-2337 2204 0
2337 -2335 -2204 0
2206 2337 -2340 0
-2206 -2337 -2340 0
-2206 2337 2340 0
2206 -2337 2340 0
-2339 2337 0
-2339 2206 0
2339 -2337 -2206 0
-2342 2339 2208 2269 0
-2342 2339 -2208 -2269 0
-2342 -2339 2208 -2269 0
2342 2339 2208 -2269 0
-2342 -2339 -2208 2269 0
2342 2339 -2208 2269 0
2342 -2339 2208 2269 0
2342 -2339 -2208 -2269 0
-2341 2339 2208 0
-2341 2339 2269 0
-2341 2208 2269 0
2341 -2339 -2208 0
2341 -2339 -2269 0
2341 -2208 -2269 0
-2344 2341 2210 2270 0
-2344 2341 -2210 -2270 0
-2344 -2341 2210 -2270 0
2344 2341 2210 -2270 0
-2344 -2341 -2210 2270 0
2344 2341 -2210 2270 0
2344 -2341 2210 2270 0
2344 -2341 -2210 -2270 0
-2343 2341 2210 0
-2343 2341 2270 0
-2343 2210 2270 0
2343 -2341 -2210 0
2343 -2341 -2270 0
2343 -2210 -2270 0
-2346 2343 2212 2271 0
-2346 2343 -2212 -2271 0
-2346 -2343 2212 -2271 0
2346 2343 2212 -2271 0
-2346 -2343 -2212 2271 0
2346 2343 -2212 2271 0
2346 -2343 2212 2271 0
2346 -2343 -2212 -2271 0
-2345 2343 2212 0
-2345 2343 2271 0
-2345 2212 2271 0
2345 -2343 -2212 0
2345 -2343 -2271 0
2345 -2212 -2271 0
-2348 2345 2214 2272 0
-2348 2345 -2214 -2272 0
-2348 -2345 2214 -2272 0
2348 2345 2214 -2272 0
-2348 -2345 -2214 2272 0
2348 2345 -2214 2272 0
2348 -2345 2214 2272 0
2348 -2345 -2214 -2272 0
-2347 2345 2214 0
-2347 2345 2272 0
-2347 2214 2272 0
2347 -2345 -2214 0
2347 -2345 -2272 0
2347 -2214 -2272 0
-2350 2347 2216 2273 0
-2350 2347 -2216 -2273 0
-2350 -2347 2216 -2273 0
2350 2347 2216 -2273 0
-2350 -2347 -2216 2273 0
2350 2347 -2216 2273 0
2350 -2347 2216 2273 0
2350 -2347 -2216 -2273 0
-2349 2347 2216 0
-2349 2347 2273 0
-2349 2216 2273 0
2349 -2347 -2216 0
2349 -2347 -2273 0
2349 -2216 -2273 0
-2352 2349 2218 2274 0
-2352 2349 -2218 -2274 0
-2352 -2349 2218 -2274 0
2352 2349 2218 -2274 0
-2352 -2349 -2218 2274 0
2352 2349 -2218 2274 0
2352 -2349 2218 2274 0
2352 -2349 -2218 -2274 0
-2351 2349 2218 0
-2351 2349 2274 0
-2351 2218 2274 0
2351 -2349 -2218 0
2351 -2349 -2274 0
2351 -2218 -2274 0
-2354 2351 2220 2275 0
-2354 2351 -2220 -2275 0
-2354 -2351 2220 -2275 0
2354 2351 2220 -2275 0
-2354 -2351 -2220 2275 0
2354 2351 -2220 2275 0
2354 -2351 2220 2275 0
2354 -2351 -2220 -2275 0
-2353 2351 2220 0
-2353 2351 2275 0
-2353 2220 2275 0
2353 -2351 -2220 0
2353 -2351 -2275 0
2353 -2220 -2275 0
-2356 2353 2222 2276 0
-2356 2353 -2222 -2276 0
-2356 -2353 2222 -2276 0
2356 2353 2222 -2276 0
-2356 -2353 -2222 2276 0
2356 2353 -2222 2276 0
2356 -2353 2222 2276 0
2356 -2353 -2222 -2276 0
-2355 2353 2222 0
-2355 2353 2276 0
-2355 2222 2276 0
2355 -2353 -2222 0
2355 -2353 -2276 0
2355 -2222 -2276 0
-2358 2355 2224 2277 0
-2358 2355 -2224 -2277 0
-2358 -2355 2224 -2277 0
2358 2355 2224 -2277 0
-2358 -2355 -2224 2277 0
2358 2355 -2224 2277 0
2358 -2355 2224 2277 0
2358 -2355 -2224 -2277 0
-2357 2355 2224 0
-2357 2355 2277 0
-2357 2224 2277 0
2357 -2355 -2224 0
2357 -2355 -2277 0
2357 -2224 -2277 0
-2360 2357 2226 2278 0
-2360 2357 -2226 -2278 0
-2360 -2357 2226 -2278 0
2360 2357 2226 -2278 0
-2360 -2357 -2226 2278 0
2360 2357 -2226 2278 0
2360 -2357 2226 2278 0
2360 -2357 -2226 -2278 0
-2359 2357 2226 0
-2359 2357 2278 0
-2359 2226 2278 0
2359 -2357 -2226 0
2359 -2357 -2278 0
2359 -2226 -2278 0
-2362 2359 2228 2279 0
-2362 2359 -2228 -2279 0
-2362 -2359 2228 -2279 0
2362 2359 2228 -2279 0
-2362 -2359 -2228 2279 0
2362 2359 -2228 2279 0
2362 -2359 2228 2279 0
2362 -2359 -2228 -2279 0
-2361 2359 2228 0
-2361 2359 2279 0
-2361 2228 2279 0
2361 -2359 -2228 0
2361 -2359 -2279 0
2361 -2228 -2279 0
-2364 2361 2230 2280 0
-2364 2361 -2230 -2280 0
-2364 -2361 2230 -2280 0
2364 2361 2230 -2280 0
-2364 -2361 -2230 2280 0
2364 2361 -2230 2280 0
2364 -2361 2230 2280 0
2364 -2361 -2230 -2280 0
-2363 2361 2230 0
-2363 2361 2280 0
-2363 2230 2280 0
2363 -2361 -2230 0
2363 -2361 -2280 0
2363 -2230 -2280 0
-2366 2363 2232 2281 0
-2366 2363 -2232 -2281 0
-2366 -2363 2232 -2281 0
2366 2363 2232 -2281 0
-2366 -2363 -2232 2281 0
2366 2363 -2232 2281 0
2366 -2363 2232 2281 0
2366 -2363 -2232 -2281 0
-2365 2363 2232 0
-2365 2363 2281 0
-2365 2232 2281 0
2365 -2363 -2232 0
2365 -2363 -2281 0
2365 -2232 -2281 0
-2368 2365 2234 2282 0
-2368 2365 -2234 -2282 0
-2368 -2365 2234 -2282 0
2368 2365 2234 -2282 0
-2368 -2365 -2234 2282 0
2368 2365 -2234 2282 0
2368 -2365 2234 2282 0
2368 -2365 -2234 -2282 0
-2367 2365 2234 0
-2367 2365 2282 0
-2367 2234 2282 0
2367 -2365 -2234 0
2367 -2365 -2282 0
2367 -2234 -2282 0
-2370 2367 2236 2283 0
-2370 2367 -2236 -2283 0
-2370 -2367 2236 -2283 0
2370 2367 2236 -2283 0
-2370 -2367 -2236 2283 0
2370 2367 -2236 2283 0
2370 -2367 2236 2283 0
2370 -2367 -2236 -2283 0
-2369 2367 2236 0
-2369 2367 2283 0
-2369 2236 2283 0
2369 -2367 -2236 0
2369 -2367 -2283 0
2369 -2236 -2283 0
-2372 2369 2238 2284 0
-2372 2369 -2238 -2284 0
-2372 -2369 2238 -2284 0
2372 2369 2238 -2284 0
-2372 -2369 -2238 2284 0
2372 2369 -2238 2284 0
2372 -2369 2238 2284 0
2372 -2369 -2238 -2284 0
-2371 2369 2238 0
-2371 2369 2284 0
-2371 2238 2284 0
2371 -2369 -2238 0
2371 -2369 -2284 0
2371 -2238 -2284 0
-2374 2371 2240 2285 0
-2374 2371 -2240 -2285 0
-2374 -2371 2240 -2285 0
2374 2371 2240 -2285 0
-2374 -2371 -2240 2285 0
2374 2371 -2240 2285 0
2374 -2371 2240 2285 0
2374 -2371 -2240 -2285 0
-2373 2371 2240 0
-2373 2371 2285 0
-2373 2240 2285 0
2373 -2371 -2240 0
2373 -2371 -2285 0
2373 -2240 -2285 0
-2376 2373 2242 2286 0
-2376 2373 -2242 -2286 0
-2376 -2373 2242 -2286 0
2376 2373 2242 -2286 0
-2376 -2373 -2242 2286 0
2376 2373 -2242 2286 0
2376 -2373 2242 2286 0
2376 -2373 -2242 -2286 0
-2375 2373 2242 0
-2375 2373 2286 0
-2375 2242 2286 0
2375 -2373 -2242 0
2375 -2373 -2286 0
2375 -2242 -2286 0
-2378 2375 2244 2287 0
-2378 2375 -2244 -2287 0
-2378 -2375 2244 -2287 0
2378 2375 2244 -2287 0
-2378 -2375 -2244 2287 0
2378 2375 -2244 2287 0
2378 -2375 2244 2287 0
2378 -2375 -2244 -2287 0
-2377 2375 2244 0
-2377 2375 2287 0
-2377 2244 2287 0
2377 -2375 -2244 0
2377 -2375 -2287 0
2377 -2244 -2287 0
-2380 2377 2246 2288 0
-2380 2377 -2246 -2288 0
-2380 -2377 2246 -2288 0
2380 2377 2246 -2288 0
-2380 -2377 -2246 2288 0
2380 2377 -2246 2288 0
2380 -2377 2246 2288 0
2380 -2377 -2246 -2288 0
-2379 2377 2246 0
-2379 2377 2288 0
-2379 2246 2288 0
2379 -2377 -2246 0
2379 -2377 -2288 0
2379 -2246 -2288 0
-2382 2379 2248 2289 0
-2382 2379 -2248 -2289 0
-2382 -2379 2248 -2289 0
2382 2379 2248 -2289 0
-2382 -2379 -2248 2289 0
2382 2379 -2248 2289 0
2382 -2379 2248 2289 0
2382 -2379 -2248 -2289 0
-2381 2379 2248 0
-2381 2379 2289 0
-2381 2248 2289 0
2381 -2379 -2248 0
2381 -2379 -2289 0
2381 -2248 -2289 0
-2384 2381 2250 2290 0
-2384 2381 -2250 -2290 0
-2384 -2381 2250 -2290 0
2384 2381 2250 -2290 0
-2384 -2381 -2250 2290 0
2384 2381 -2250 2290 0
2384 -2381 2250 2290 0
2384 -2381 -2250 -2290 0
-2383 2381 2250 0
-2383 2381 2290 0
-2383 2250 2290 0
2383 -2381 -2250 0
2383 -2381 -2290 0
2383 -2250 -2290 0
-2386 2383 2252 2291 0
-2386 2383 -2252 -2291 0
-2386 -2383 2252 -2291 0
2386 2383 2252 -2291 0
-2386 -2383 -2252 2291 0
2386 2383 -2252 2291 0
2386 -2383 2252 2291 0
2386 -2383 -2252 -2291 0
-2385 2383 2252 0
-2385 2383 2291 0
-2385 2252 2291 0
2385 -2383 -2252 0
2385 -2383 -2291 0
2385 -2252 -2291 0
-2388 2385 2254 2292 0
-2388 2385 -2254 -2292 0
-2388 -2385 2254 -2292 0
2388 2385 2254 -2292 0
-2388 -2385 -2254 2292 0
2388 2385 -2254 2292 0
2388 -2385 2254 2292 0
2388 -2385 -2254 -2292 0
-2387 2385 2254 0
-2387 2385 2292 0
-2387 2254 2292 0
2387 -2385 -2254 0
2387 -2385 -2292 0
2387 -2254 -2292 0
-2390 2387 2256 2293 0
-2390 2387 -2256 -2293 0
-2390 -2387 2256 -2293 0
2390 2387 2256 -2293 0
-2390 -2387 -2256 2293 0
2390 2387 -2256 2293 0
2390 -2387 2256 2293 0
2390 -2387 -2256 -2293 0
-2389 2387 2256 0
-2389 2387 2293 0
-2389 2256 2293 0
2389 -2387 -2256 0
2389 -2387 -2293 0
2389 -2256 -2293 0
-2392 2389 2258 2294 0
-2392 2389 -2258 -2294 0
-2392 -2389 2258 -2294 0
2392 2389 2258 -2294 0
-2392 -2389 -2258 2294 0
2392 2389 -2258 2294 0
2392 -2389 2258 2294 0
2392 -2389 -2258 -2294 0
-2391 2389 2258 0
-2391 2389 2294 0
-2391 2258 2294 0
2391 -2389 -2258 0
2391 -2389 -2294 0
2391 -2258 -2294 0
-2394 2391 2260 2295 0
-2394 2391 -2260 -2295 0
-2394 -2391 2260 -2295 0
2394 2391 2260 -2295 0
-2394 -2391 -2260 2295 0
2394 2391 -2260 2295 0
2394 -2391 2260 2295 0
2394 -2391 -2260 -2295 0
-2393 2391 2260 0
-2393 2391 2295 0
-2393 2260 2295 0
2393 -2391 -2260 0
2393 -2391 -2295 0
2393 -2260 -2295 0
-2396 2393 2262 2296 0
-2396 2393 -2262 -2296 0
-2396 -2393 2262 -2296 0
2396 2393 2262 -2296 0
-2396 -2393 -2262 2296 0
2396 2393 -2262 2296 0
2396 -2393 2262 2296 0
2396 -2393 -2262 -2296 0
-2395 2393 2262 0
-2395 2393 2296 0
-2395 2262 2296 0
2395 -2393 -2262 0
2395 -2393 -2296 0
2395 -2262 -2296 0
-2398 2395 2264 2297 0
-2398 2395 -2264 -2297 0
-2398 -2395 2264 -2297 0
2398 2395 2264 -2297 0
-2398 -2395 -2264 2297 0
2398 2395 -2264 2297 0
2398 -2395 2264 2297 0
2398 -2395 -2264 -2297 0
-2397 2395 2264 0
-2397 2395 2297 0
-2397 2264 2297 0
2397 -2395 -2264 0
2397 -2395 -2297 0
2397 -2264 -2297 0
-2400 2397 2266 2298 0
-2400 2397 -2266 -2298 0
-2400 -2397 2266 -2298 0
2400 2397 2266 -2298 0
-2400 -2397 -2266 2298 0
2400 2397 -2266 2298 0
2400 -2397 2266 2298 0
2400 -2397 -2266 -2298 0
-2399 2397 2266 0
-2399 2397 2298 0
-2399 2266 2298 0
2399 -2397 -2266 0
2399 -2397 -2298 0
2399 -2266 -2298 0
-2402 2399 2268 2299 0
-2402 2399 -2268 -2299 0
-2402 -2399 2268 -2299 0
2402 2399 2268 -2299 0
-2402 -2399 -2268 2299 0
2402 2399 -2268 2299 0
2402 -2399 2268 2299 0
2402 -2399 -2268 -2299 0
-2401 2399 2268 0
-2401 2399 2299 0
-2401 2268 2299 0
2401 -2399 -2268 0
2401 -2399 -2299 0
2401 -2268 -2299 0
-2404 2401 2267 2300 0
-2404 2401 -2267 -2300 0
-2404 -2401 2267 -2300 0
2404 2401 2267 -2300 0
-2404 -2401 -2267 2300 0
2404 2401 -2267 2300 0
2404 -2401 2267 2300 0
2404 -2401 -2267 -2300 0
-2403 2401 2267 0
-2403 2401 2300 0
-2403 2267 2300 0
2403 -2401 -2267 0
2403 -2401 -2300 0
2403 -2267 -2300 0
-2405 1 0
-2405 22 0
2405 -1 -22 0
-2406 2 0
-2406 22 0
2406 -2 -22 0
-2407 3 0
-2407 22 0
2407 -3 -22 0
-2408 4 0
-2408 22 0
2408 -4 -22 0
-2409 5 0
-2409 22 0
2409 -5 -22 0
-2410 6 0
-2410 22 0
2410 -6 -22 0
-2411 7 0
-2411 22 0
2411 -7 -22 0
-2412 8 0
-2412 22 0
2412 -8 -22 0
-2413 9 0
-2413 22 0
2413 -9 -22 0
-2414 10 0
-2414 22 0
2414 -10 -22 0
-2415 11 0
-2415 22 0
2415 -11 -22 0
-2416 12 0
-2416 22 0
2416 -12 -22 0
-2417 13 0
-2417 22 0
2417 -13 -22 0
-2418 14 0
-2418 22 0
2418 -14 -22 0
-2419 15 0
-2419 22 0
2419 -15 -22 0
-2420 16 0
-2420 22 0
2420 -16 -22 0
-2421 17 0
-2421 22 0
2421 -17 -22 0
-2422 18 0
-2422 22 0
2422 -18 -22 0
-2423 19 0
-2423 22 0
2423 -19 -22 0
-2424 20 0
-2424 22 0
2424 -20 -22 0
-2425 21 0
-2425 22 0
2425 -21 -22 0
-2426 22 0
2426 -22 0
-2427 23 0
-2427 22 0
2427 -23 -22 0
-2428 24 0
-2428 22 0
2428 -24 -22 0
-2429 25 0
-2429 22 0
2429 -25 -22 0
-2430 26 0
-2430 22 0
2430 -26 -22 0
-2431 27 0
-2431 22 0
2431 -27 -22 0
-2432 28 0
-2432 22 0
2432 -28 -22 0
-2433 29 0
-2433 22 0
2433 -29 -22 0
-2434 30 0
-2434 22 0
2434 -30 -22 0
-2435 31 0
-2435 22 0
2435 -31 -22 0
-2436 32 0
-2436 22 0
2436 -32 -22 0
-2302 2438 0
2302 -2438 0
-2437 0
2304 2437 -2440 0
-2304 -2437 -2440 0
-2304 2437 2440 0
2304 -2437 2440 0
-2439 2437 0
-2439 2304 0
2439 -2437 -2304 0
2306 2439 -2442 0
-2306 -2439 -2442 0
-2306 2439 2442 0
2306 -2439 2442 0
-2441 2439 0
-2441 2306 0
2441 -2439 -2306 0
2308 2441 -2444 0
-2308 -2441 -2444 0
-2308 2441 2444 0
2308 -2441 2444 0
-2443 2441 0
-2443 2308 0
2443 -2441 -2308 0
2310 2443 -2446 0
-2310 -2443 -2446 0
-2310 2443 2446 0
2310 -2443 2446 0
-2445 2443 0
-2445 2310 0
2445 -2443 -2310 0
2312 2445 -2448 0
-2312 -2445 -2448 0
-2312 2445 2448 0
2312 -2445 2448 0
-2447 2445 0
-2447 2312 0
2447 -2445 -2312 0
2314 2447 -2450 0
-2314 -2447 -2450 0
-2314 2447 2450 0
2314 -2447 2450 0
-2449 2447 0
-2449 2314 0
2449 -2447 -2314 0
2316 2449 -2452 0
-2316 -2449 -2452 0
-2316 2449 2452 0
2316 -2449 2452 0
-2451 2449 0
-2451 2316 0
2451 -2449 -2316 0
2318 2451 -2454 0
-2318 -2451 -2454 0
-2318 2451 2454 0
2318 -2451 2454 0
-2453 2451 0
-2453 2318 0
2453 -2451 -2318 0
2320 2453 -2456 0
-2320 -2453 -2456 0
-2320 2453 2456 0
2320 -2453 2456 0
-2455 2453 0
-2455 2320 0
2455 -2453 -2320 0
2322 2455 -2458 0
-2322 -2455 -2458 0
-2322 2455 2458 0
2322 -2455 2458 0
-2457 2455 0
-2457 2322 0
2457 -2455 -2322 0
2324 2457 -2460 0
-2324 -2457 -2460 0
-2324 2457 2460 0
2324 -2457 2460 0
-2459 2457 0
-2459 2324 0
2459 -2457 -2324 0
2326 2459 -2462 0
-2326 -2459 -2462 0
-2326 2459 2462 0
2326 -2459 2462 0
-2461 2459 0
-2461 2326 0
2461 -2459 -2326 0
2328 2461 -2464 0
-2328 -2461 -2464 0
-2328 2461 2464 0
2328 -2461 2464 0
-2463 2461 0
-2463 2328 0
2463 -2461 -2328 0
2330 2463 -2466 0
-2330 -2463 -2466 0
-2330 2463 2466 0
2330 -2463 2466 0
-2465 2463 0
-2465 2330 0
2465 -2463 -2330 0
2332 2465 -2468 0
-2332 -2465 -2468 0
-2332 2465 2468 0
2332 -2465 2468 0
-2467 2465 0
-2467 2332 0
2467 -2465 -2332 0
2334 2467 -2470 0
-2334 -2467 -2470 0
-2334 2467 2470 0
2334 -2467 2470 0
-2469 2467 0
-2469 2334 0
2469 -2467 -2334 0
2336 2469 -2472 0
-2336 -2469 -2472 0
-2336 2469 2472 0
2336 -2469 2472 0
-2471 2469 0
-2471 2336 0
2471 -2469 -2336 0
2338 2471 -2474 0
-2338 -2471 -2474 0
-2338 2471 2474 0
2338 -2471 2474 0
-2473 2471 0
-2473 2338 0
2473 -2471 -2338 0
2340 2473 -2476 0
-2340 -2473 -2476 0
-2340 2473 2476 0
2340 -2473 2476 0
-2475 2473 0
-2475 2340 0
2475 -2473 -2340 0
2342 2475 -2478 0
-2342 -2475 -2478 0
-2342 2475 2478 0
2342 -2475 2478 0
-2477 2475 0
-2477 2342 0
2477 -2475 -2342 0
-2480 2477 2344 2405 0
-2480 2477 -2344 -2405 0
-2480 -2477 2344 -2405 0
2480 2477 2344 -2405 0
-2480 -2477 -2344 2405 0
2480 2477 -2344 2405 0
2480 -2477 2344 2405 0
2480 -2477 -2344 -2405 0
-2479 2477 2344 0
-2479 2477 2405 0
-2479 2344 2405 0
2479 -2477 -2344 0
2479 -2477 -2405 0
2479 -2344 -2405 0
-2482 2479 2346 2406 0
-2482 2479 -2346 -2406 0
-2482 -2479 2346 -2406 0
2482 2479 2346 -2406 0
-2482 -2479 -2346 2406 0
2482 2479 -2346 2406 0
2482 -2479 2346 2406 0
2482 -2479 -2346 -2406 0
-2481 2479 2346 0
-2481 2479 2406 0
-2481 2346 2406 0
2481 -2479 -2346 0
2481 -2479 -2406 0
2481 -2346 -2406 0
-2484 2481 2348 2407 0
-2484 2481 -2348 -2407 0
-2484 -2481 2348 -2407 0
2484 2481 2348 -2407 0
-2484 -2481 -2348 2407 0
2484 2481 -2348 2407 0
2484 -2481 2348 2407 0
2484 -2481 -2348 -2407 0
-2483 2481 2348 0
-2483 2481 2407 0
-2483 2348 2407 0
2483 -2481 -2348 0
2483 -2481 -2407 0
2483 -2348 -2407 0
-2486 2483 2350 2408 0
-2486 2483 -2350 -2408 0
-2486 -2483 2350 -2408 0
2486 2483 2350 -2408 0
-2486 -2483 -2350 2408 0
2486 2483 -2350 2408 0
2486 -2483 2350 2408 0
2486 -2483 -2350 -2408 0
-2485 2483 2350 0
-2485 2483 2408 0
-2485 2350 2408 0
2485 -2483 -2350 0
2485 -2483 -2408 0
2485 -2350 -2408 0
-2488 2485 2352 2409 0
-2488 2485 -2352 -2409 0
-2488 -2485 2352 -2409 0
2488 2485 2352 -2409 0
-2488 -2485 -2352 2409 0
2488 2485 -2352 2409 0
2488 -2485 2352 2409 0
2488 -2485 -2352 -2409 0
-2487 2485 2352 0
-2487 2485 2409 0
-2487 2352 2409 0
2487 -2485 -2352 0
2487 -2485 -2409 0
2487 -2352 -2409 0
-2490 2487 2354 2410 0
-2490 2487 -2354 -2410 0
-2490 -2487 2354 -2410 0
2490 2487 2354 -2410 0
-2490 -2487 -2354 2410 0
2490 2487 -2354 2410 0
2490 -2487 2354 2410 0
2490 -2487 -2354 -2410 0
-2489 2487 2354 0
-2489 2487 2410 0
-2489 2354 2410 0
2489 -2487 -2354 0
2489 -2487 -2410 0
2489 -2354 -2410 0
-2492 2489 2356 2411 0
-2492 2489 -2356 -2411 0
-2492 -2489 2356 -2411 0
2492 2489 2356 -2411 0
-2492 -2489 -2356 2411 0
2492 2489 -2356 2411 0
2492 -2489 2356 2411 0
2492 -2489 -2356 -2411 0
-2491 2489 2356 0
-2491 2489 2411 0
-2491 2356 2411 0
2491 -2489 -2356 0
2491 -2489 -2411 0
2491 -2356 -2411 0
-2494 2491 2358 2412 0
-2494 2491 -2358 -2412 0
-2494 -2491 2358 -2412 0
2494 2491 2358 -2412 0
-2494 -2491 -2358 2412 0
2494 2491 -2358 2412 0
2494 -2491 2358 2412 0
2494 -2491 -2358 -2412 0
-2493 2491 2358 0
-2493 2491 2412 0
-2493 2358 2412 0
2493 -2491 -2358 0
2493 -2491 -2412 0
2493 -2358 -2412 0
-2496 2493 2360 2413 0
-2496 2493 -2360 -2413 0
-2496 -2493 2360 -2413 0
2496 2493 2360 -2413 0
-2496 -2493 -2360 2413 0
2496 2493 -2360 2413 0
2496 -2493 2360 2413 0
2496 -2493 -2360 -2413 0
-2495 2493 2360 0
-2495 2493 2413 0
-2495 2360 2413 0
2495 -2493 -2360 0
2495 -2493 -2413 0
2495 -2360 -2413 0
-2498 2495 2362 2414 0
-2498 2495 -2362 -2414 0
-2498 -2495 2362 -2414 0
2498 2495 2362 -2414 0
-2498 -2495 -2362 2414 0
2498 2495 -2362 2414 0
2498 -2495 2362 2414 0
2498 -2495 -2362 -2414 0
-2497 2495 2362 0
-2497 2495 2414 0
-2497 2362 2414 0
2497 -2495 -2362 0
2497 -2495 -2414 0
2497 -2362 -2414 0
-2500 2497 2364 2415 0
-2500 2497 -2364 -2415 0
-2500 -2497 2364 -2415 0
2500 2497 2364 -2415 0
-2500 -2497 -2364 2415 0
2500 2497 -2364 2415 0
2500 -2497 2364 2415 0
2500 -2497 -2364 -2415 0
-2499 2497 2364 0
-2499 2497 2415 0
-2499 2364 2415 0
2499 -2497 -2364 0
2499 -2497 -2415 0
2499 -2364 -2415 0
-2502 2499 2366 2416 0
-2502 2499 -2366 -2416 0
-2502 -2499 2366 -2416 0
2502 2499 2366 -2416 0
-2502 -2499 -2366 2416 0
2502 2499 -2366 2416 0
2502 -2499 2366 2416 0
2502 -2499 -2366 -2416 0
-2501 2499 2366 0
-2501 2499 2416 0
-2501 2366 2416 0
2501 -2499 -2366 0
2501 -2499 -2416 0
2501 -2366 -2416 0
-2504 2501 2368 2417 0
-2504 2501 -2368 -2417 0
-2504 -2501 2368 -2417 0
2504 2501 2368 -2417 0
-2504 -2501 -2368 2417 0
2504 2501 -2368 2417 0
2504 -2501 2368 2417 0
2504 -2501 -2368 -2417 0
-2503 2501 2368 0
-2503 2501 2417 0
-2503 2368 2417 0
2503 -2501 -2368 0
2503 -2501 -2417 0
2503 -2368 -2417 0
-2506 2503 2370 2418 0
-2506 2503 -2370 -2418 0
-2506 -2503 2370 -2418 0
2506 2503 2370 -2418 0
-2506 -2503 -2370 2418 0
2506 2503 -2370 2418 0
2506 -2503 2370 2418 0
2506 -2503 -2370 -2418 0
-2505 2503 2370 0
-2505 2503 2418 0
-2505 2370 2418 0
2505 -2503 -2370 0
2505 -2503 -2418 0
2505 -2370 -2418 0
-2508 2505 2372 2419 0
-2508 2505 -2372 -2419 0
-2508 -2505 2372 -2419 0
2508 2505 2372 -2419 0
-2508 -2505 -2372 2419 0
2508 2505 -2372 2419 0
2508 -2505 2372 2419 0
2508 -2505 -2372 -2419 0
-2507 2505 2372 0
-2507 2505 2419 0
-2507 2372 2419 0
2507 -2505 -2372 0
2507 -2505 -2419 0
2507 -2372 -2419 0
-2510 2507 2374 2420 0
-2510 2507 -2374 -2420 0
-2510 -2507 2374 -2420 0
2510 2507 2374 -2420 0
-2510 -2507 -2374 2420 0
2510 2507 -2374 2420 0
2510 -2507 2374 2420 0
2510 -2507 -2374 -2420 0
-2509 2507 2374 0
-2509 2507 2420 0
-2509 2374 2420 0
2509 -2507 -2374 0
2509 -2507 -2420 0
2509 -2374 -2420 0
-2512 2509 2376 2421 0
-2512 2509 -2376 -2421 0
-2512 -2509 2376 -2421 0
2512 2509 2376 -2421 0
-2512 -2509 -2376 2421 0
2512 2509 -2376 2421 0
2512 -2509 2376 2421 0
2512 -2509 -2376 -2421 0
-2511 2509 2376 0
-2511 2509 2421 0
-2511 2376 2421 0
2511 -2509 -2376 0
2511 -2509 -2421 0
2511 -2376 -2421 0
-2514 2511 2378 2422 0
-2514 2511 -2378 -2422 0
-2514 -2511 2378 -2422 0
2514 2511 2378 -2422 0
-2514 -2511 -2378 2422 0
2514 2511 -2378 2422 0
2514 -2511 2378 2422 0
2514 -2511 -2378 -2422 0
-2513 2511 2378 0
-2513 2511 2422 0
-2513 2378 2422 0
2513 -2511 -2378 0
2513 -2511 -2422 0
2513 -2378 -2422 0
-2516 2513 2380 2423 0
-2516 2513 -2380 -2423 0
-2516 -2513 2380 -2423 0
2516 2513 2380 -2423 0
-2516 -2513 -2380 2423 0
2516 2513 -2380 2423 0
2516 -2513 2380 2423 0
2516 -2513 -2380 -2423 0
-2515 2513 2380 0
-2515 2513 2423 0
-2515 2380 2423 0
2515 -2513 -2380 0
2515 -2513 -2423 0
2515 -2380 -2423 0
-2518 2515 2382 2424 0
-2518 2515 -2382 -2424 0
-2518 -2515 2382 -2424 0
2518 2515 2382 -2424 0
-2518 -2515 -2382 2424 0
2518 2515 -2382 2424 0
2518 -2515 2382 2424 0
2518 -2515 -2382 -2424 0
-2517 2515 2382 0
-2517 2515 2424 0
-2517 2382 2424 0
2517 -2515 -2382 0
2517 -2515 -2424 0
2517 -2382 -2424 0
-2520 2517 2384 2425 0
-2520 2517 -2384 -2425 0
-2520 -2517 2384 -2425 0
2520 2517 2384 -2425 0
-2520 -2517 -2384 2425 0
2520 2517 -2384 2425 0
2520 -2517 2384 2425 0
2520 -2517 -2384 -2425 0
-2519 2517 2384 0
-2519 2517 2425 0
-2519 2384 2425 0
2519 -2517 -2384 0
2519 -2517 -2425 0
2519 -2384 -2425 0
-2522 2519 2386 2426 0
-2522 2519 -2386 -2426 0
-2522 -2519 2386 -2426 0
2522 2519 2386 -2426 0
-2522 -2519 -2386 2426 0
2522 2519 -2386 2426 0
2522 -2519 2386 2426 0
2522 -2519 -2386 -2426 0
-2521 2519 2386 0
-2521 2519 2426 0
-2521 2386 2426 0
2521 -2519 -2386 0
2521 -2519 -2426 0
2521 -2386 -2426 0
-2524 2521 2388 2427 0
-2524 2521 -2388 -2427 0
-2524 -2521 2388 -2427 0
2524 2521 2388 -2427 0
-2524 -2521 -2388 2427 0
2524 2521 -2388 2427 0
2524 -2521 2388 2427 0
2524 -2521 -2388 -2427 0
-2523 2521 2388 0
-2523 2521 2427 0
-2523 2388 2427 0
2523 -2521 -2388 0
2523 -2521 -2427 0
2523 -2388 -2427 0
-2526 2523 2390 2428 0
-2526 2523 -2390 -2428 0
-2526 -2523 2390 -2428 0
2526 2523 2390 -2428 0
-2526 -2523 -2390 2428 0
2526 2523 -2390 2428 0
2526 -2523 2390 2428 0
2526 -2523 -2390 -2428 0
-2525 2523 2390 0
-2525 2523 2428 0
-2525 2390 2428 0
2525 -2523 -2390 0
2525 -2523 -2428 0
2525 -2390 -2428 0
-2528 2525 2392 2429 0
-2528 2525 -2392 -2429 0
-2528 -2525 2392 -2429 0
2528 2525 2392 -2429 0
-2528 -2525 -2392 2429 0
2528 2525 -2392 2429 0
2528 -2525 2392 2429 0
2528 -2525 -2392 -2429 0
-2527 2525 2392 0
-2527 2525 2429 0
-2527 2392 2429 0
2527 -2525 -2392 0
2527 -2525 -2429 0
2527 -2392 -2429 0
-2530 2527 2394 2430 0
-2530 2527 -2394 -2430 0
-2530 -2527 2394 -2430 0
2530 2527 2394 -2430 0
-2530 -2527 -2394 2430 0
2530 2527 -2394 2430 0
2530 -2527 2394 2430 0
2530 -2527 -2394 -2430 0
-2529 2527 2394 0
-2529 2527 2430 0
-2529 2394 2430 0
2529 -2527 -2394 0
2529 -2527 -2430 0
2529 -2394 -2430 0
-2532 2529 2396 2431 0
-2532 2529 -2396 -2431 0
-2532 -2529 2396 -2431 0
2532 2529 2396 -2431 0
-2532 -2529 -2396 2431 0
2532 2529 -2396 2431 0
2532 -2529 2396 2431 0
2532 -2529 -2396 -2431 0
-2531 2529 2396 0
-2531 2529 2431 0
-2531 2396 2431 0
2531 -2529 -2396 0
2531 -2529 -2431 0
2531 -2396 -2431 0
-2534 2531 2398 2432 0
-2534 2531 -2398 -2432 0
-2534 -2531 2398 -2432 0
2534 2531 2398 -2432 0
-2534 -2531 -2398 2432 0
2534 2531 -2398 2432 0
2534 -2531 2398 2432 0
2534 -2531 -2398 -2432 0
-2533 2531 2398 0
-2533 2531 2432 0
-2533 2398 2432 0
2533 -2531 -2398 0
2533 -2531 -2432 0
2533 -2398 -2432 0
-2536 2533 2400 2433 0
-2536 2533 -2400 -2433 0
-2536 -2533 2400 -2433 0
2536 2533 2400 -2433 0
-2536 -2533 -2400 2433 0
2536 2533 -2400 2433 0
2536 -2533 2400 2433 0
2536 -2533 -2400 -2433 0
-2535 2533 2400 0
-2535 2533 2433 0
-2535 2400 2433 0
2535 -2533 -2400 0
2535 -2533 -2433 0
2535 -2400 -2433 0
-2538 2535 2402 2434 0
-2538 2535 -2402 -2434 0
-2538 -2535 2402 -2434 0
2538 2535 2402 -2434 0
-2538 -2535 -2402 2434 0
2538 2535 -2402 2434 0
2538 -2535 2402 2434 0
2538 -2535 -2402 -2434 0
-2537 2535 2402 0
-2537 2535 2434 0
-2537 2402 2434 0
2537 -2535 -2402 0
2537 -2535 -2434 0
2537 -2402 -2434 0
-2540 2537 2404 2435 0
-2540 2537 -2404 -2435 0
-2540 -2537 2404 -2435 0
2540 2537 2404 -2435 0
-2540 -2537 -2404 2435 0
2540 2537 -2404 2435 0
2540 -2537 2404 2435 0
2540 -2537 -2404 -2435 0
-2539 2537 2404 0
-2539 2537 2435 0
-2539 2404 2435 0
2539 -2537 -2404 0
2539 -2537 -2435 0
2539 -2404 -2435 0
-2542 2539 2403 2436 0
-2542 2539 -2403 -2436 0
-2542 -2539 2403 -2436 0
2542 2539 2403 -2436 0
-2542 -2539 -2403 2436 0
2542 2539 -2403 2436 0
2542 -2539 2403 2436 0
2542 -2539 -2403 -2436 0
-2541 2539 2403 0
-2541 2539 2436 0
-2541 2403 2436 0
2541 -2539 -2403 0
2541 -2539 -2436 0
2541 -2403 -2436 0
-2543 1 0
-2543 23 0
2543 -1 -23 0
-2544 2 0
-2544 23 0
2544 -2 -23 0
-2545 3 0
-2545 23 0
2545 -3 -23 0
-2546 4 0
-2546 23 0
2546 -4 -23 0
-2547 5 0
-2547 23 0
2547 -5 -23 0
-2548 6 0
-2548 23 0
2548 -6 -23 0
-2549 7 0
-2549 23 0
2549 -7 -23 0
-2550 8 0
-2550 23 0
2550 -8 -23 0
-2551 9 0
-2551 23 0
2551 -9 -23 0
-2552 10 0
-2552 23 0
2552 -10 -23 0
-2553 11 0
-2553 23 0
2553 -11 -23 0
-2554 12 0
-2554 23 0
2554 -12 -23 0
-2555 13 0
-2555 23 0
2555 -13 -23 0
-2556 14 0
-2556 23 0
2556 -14 -23 0
-2557 15 0
-2557 23 0
2557 -15 -23 0
-2558 16 0
-2558 23 0
2558 -16 -23 0
-2559 17 0
-2559 23 0
2559 -17 -23 0
-2560 18 0
-2560 23 0
2560 -18 -23 0
-2561 19 0
-2561 23 0
2561 -19 -23 0
-2562 20 0
-2562 23 0
2562 -20 -23 0
-2563 21 0
-2563 23 0
2563 -21 -23 0
-2564 22 0
-2564 23 0
2564 -22 -23 0
-2565 23 0
2565 -23 0
-2566 24 0
-2566 23 0
2566 -24 -23 0
-2567 25 0
-2567 23 0
2567 -25 -23 0
-2568 26 0
-2568 23 0
2568 -26 -23 0
-2569 27 0
-2569 23 0
2569 -27 -23 0
-2570 28 0
-2570 23 0
2570 -28 -23 0
-2571 29 0
-2571 23 0
2571 -29 -23 0
-2572 30 0
-2572 23 0
2572 -30 -23 0
-2573 31 0
-2573 23 0
2573 -31 -23 0
-2574 32 0
-2574 23 0
2574 -32 -23 0
-2438 2576 0
2438 -2576 0
-2575 0
2440 2575 -2578 0
-2440 -2575 -2578 0
-2440 2575 2578 0
2440 -2575 2578 0
-2577 2575 0
-2577 2440 0
2577 -2575 -2440 0
2442 2577 -2580 0
-2442 -2577 -2580 0
-2442 2577 2580 0
2442 -2577 2580 0
-2579 2577 0
-2579 2442 0
2579 -2577 -2442 0
2444 2579 -2582 0
-2444 -2579 -2582 0
-2444 2579 2582 0
2444 -2579 2582 0
-2581 2579 0
-2581 2444 0
2581 -2579 -2444 0
2446 2581 -2584 0
-2446 -2581 -2584 0
-2446 2581 2584 0
2446 -2581 2584 0
-2583 2581 0
-2583 2446 0
2583 -2581 -2446 0
2448 2583 -2586 0
-2448 -2583 -2586 0
-2448 2583 2586 0
2448 -2583 2586 0
-2585 2583 0
-2585 2448 0
2585 -2583 -2448 0
2450 2585 -2588 0
-2450 -2585 -2588 0
-2450 2585 2588 0
2450 -2585 2588 0
-2587 2585 0
-2587 2450 0
2587 -2585 -2450 0
2452 2587 -2590 0
-2452 -2587 -2590 0
-2452 2587 2590 0
2452 -2587 2590 0
-2589 2587 0
-2589 2452 0
2589 -2587 -2452 0
2454 2589 -2592 0
-2454 -2589 -2592 0
-2454 2589 2592 0
2454 -2589 2592 0
-2591 2589 0
-2591 2454 0
2591 -2589 -2454 0
2456 2591 -2594 0
-2456 -2591 -2594 0
-2456 2591 2594 0
2456 -2591 2594 0
-2593 2591 0
-2593 2456 0
2593 -2591 -2456 0
2458 2593 -2596 0
-2458 -2593 -2596 0
-2458 2593 2596 0
2458 -2593 2596 0
-2595 2593 0
-2595 2458 0
2595 -2593 -2458 0
2460 2595 -2598 0
-2460 -2595 -2598 0
-2460 2595 2598 0
2460 -2595 2598 0
-2597 2595 0
-2597 2460 0
2597 -2595 -2460 0
2462 2597 -2600 0
-2462 -2597 -2600 0
-2462 2597 2600 0
2462 -2597 2600 0
-2599 2597 0
-2599 2462 0
2599 -2597 -2462 0
2464 2599 -2602 0
-2464 -2599 -2602 0
-2464 2599 2602 0
2464 -2599 2602 0
-2601 2599 0
-2601 2464 0
2601 -2599 -2464 0
2466 2601 -2604 0
-2466 -2601 -2604 0
-2466 2601 2604 0
2466 -2601 2604 0
-2603 2601 0
-2603 2466 0
2603 -2601 -2466 0
2468 2603 -2606 0
-2468 -2603 -2606 0
-2468 2603 2606 0
2468 -2603 2606 0
-2605 2603 0
-2605 2468 0
2605 -2603 -2468 0
2470 2605 -2608 0
-2470 -2605 -2608 0
-2470 2605 2608 0
2470 -2605 2608 0
-2607 2605 0
-2607 2470 0
2607 -2605 -2470 0
2472 2607 -2610 0
-2472 -2607 -2610 0
-2472 2607 2610 0
2472 -2607 2610 0
-2609 2607 0
-2609 2472 0
2609 -2607 -2472 0
2474 2609 -2612 0
-2474 -2609 -2612 0
-2474 2609 2612 0
2474 -2609 2612 0
-2611 2609 0
-2611 2474 0
2611 -2609 -2474 0
2476 2611 -2614 0
-2476 -2611 -2614 0
-2476 2611 2614 0
2476 -2611 2614 0
-2613 2611 0
-2613 2476 0
2613 -2611 -2476 0
2478 2613 -2616 0
-2478 -2613 -2616 0
-2478 2613 2616 0
2478 -2613 2616 0
-2615 2613 0
-2615 2478 0
2615 -2613 -2478 0
2480 2615 -2618 0
-2480 -2615 -2618 0
-2480 2615 2618 0
2480 -2615 2618 0
-2617 2615 0
-2617 2480 0
2617 -2615 -2480 0
-2620 2617 2482 2543 0
-2620 2617 -2482 -2543 0
-2620 -2617 2482 -2543 0
2620 2617 2482 -2543 0
-2620 -2617 -2482 2543 0
2620 2617 -2482 2543 0
2620 -2617 2482 2543 0
2620 -2617 -2482 -2543 0
-2619 2617 2482 0
-2619 2617 2543 0
-2619 2482 2543 0
2619 -2617 -2482 0
2619 -2617 -2543 0
2619 -2482 -2543 0
-2622 2619 2484 2544 0
-2622 2619 -2484 -2544 0
-2622 -2619 2484 -2544 0
2622 2619 2484 -2544 0
-2622 -2619 -2484 2544 0
2622 2619 -2484 2544 0
2622 -2619 2484 2544 0
2622 -2619 -2484 -2544 0
-2621 2619 2484 0
-2621 2619 2544 0
-2621 2484 2544 0
2621 -2619 -2484 0
2621 -2619 -2544 0
2621 -2484 -2544 0
-2624 2621 2486 2545 0
-2624 2621 -2486 -2545 0
-2624 -2621 2486 -2545 0
2624 2621 2486 -2545 0
-2624 -2621 -2486 2545 0
2624 2621 -2486 2545 0
2624 -2621 2486 2545 0
2624 -2621 -2486 -2545 0
-2623 2621 2486 0
-2623 2621 2545 0
-2623 2486 2545 0
2623 -2621 -2486 0
2623 -2621 -2545 0
2623 -2486 -2545 0
-2626 2623 2488 2546 0
-2626 2623 -2488 -2546 0
-2626 -2623 2488 -2546 0
2626 2623 2488 -2546 0
-2626 -2623 -2488 2546 0
2626 2623 -2488 2546 0
2626 -2623 2488 2546 0
2626 -2623 -2488 -2546 0
-2625 2623 2488 0
-2625 2623 2546 0
-2625 2488 2546 0
2625 -2623 -2488 0
2625 -2623 -2546 0
2625 -2488 -2546 0
-2628 2625 2490 2547 0
-2628 2625 -2490 -2547 0
-2628 -2625 2490 -2547 0
2628 2625 2490 -2547 0
-2628 -2625 -2490 2547 0
2628 2625 -2490 2547 0
2628 -2625 2490 2547 0
2628 -2625 -2490 -2547 0
-2627 2625 2490 0
-2627 2625 2547 0
-2627 2490 2547 0
2627 -2625 -2490 0
2627 -2625 -2547 0
2627 -2490 -2547 0
-2630 2627 2492 2548 0
-2630 2627 -2492 -2548 0
-2630 -2627 2492 -2548 0
2630 2627 2492 -2548 0
-2630 -2627 -2492 2548 0
2630 2627 -2492 2548 0
2630 -2627 2492 2548 0
2630 -2627 -2492 -2548 0
-2629 2627 2492 0
-2629 2627 2548 0
-2629 2492 2548 0
2629 -2627 -2492 0
2629 -2627 -2548 0
2629 -2492 -2548 0
-2632 2629 2494 2549 0
-2632 2629 -2494 -2549 0
-2632 -2629 2494 -2549 0
2632 2629 2494 -2549 0
-2632 -2629 -2494 2549 0
2632 2629 -2494 2549 0
2632 -2629 2494 2549 0
2632 -2629 -2494 -2549 0
-2631 2629 2494 0
-2631 2629 2549 0
-2631 2494 2549 0
2631 -2629 -2494 0
2631 -2629 -2549 0
2631 -2494 -2549 0
-2634 2631 2496 2550 0
-2634 2631 -2496 -2550 0
-2634 -2631 2496 -2550 0
2634 2631 2496 -2550 0
-2634 -2631 -2496 2550 0
2634 2631 -2496 2550 0
2634 -2631 2496 2550 0
2634 -2631 -2496 -2550 0
-2633 2631 2496 0
-2633 2631 2550 0
-2633 2496 2550 0
2633 -2631 -2496 0
2633 -2631 -2550 0
2633 -2496 -2550 0
-2636 2633 2498 2551 0
-2636 2633 -2498 -2551 0
-2636 -2633 2498 -2551 0
2636 2633 2498 -2551 0
-2636 -2633 -2498 2551 0
2636 2633 -2498 2551 0
2636 -2633 2498 2551 0
2636 -2633 -2498 -2551 0
-2635 2633 2498 0
-2635 2633 2551 0
-2635 2498 2551 0
2635 -2633 -2498 0
2635 -2633 -2551 0
2635 -2498 -2551 0
-2638 2635 2500 2552 0
-2638 2635 -2500 -2552 0
-2638 -2635 2500 -2552 0
2638 2635 2500 -2552 0
-2638 -2635 -2500 2552 0
2638 2635 -2500 2552 0
2638 -2635 2500 2552 0
2638 -2635 -2500 -2552 0
-2637 2635 2500 0
-2637 2635 2552 0
-2637 2500 2552 0
2637 -2635 -2500 0
2637 -2635 -2552 0
2637 -2500 -2552 0
-2640 2637 2502 2553 0
-2640 2637 -2502 -2553 0
-2640 -2637 2502 -2553 0
2640 2637 2502 -2553 0
-2640 -2637 -2502 2553 0
2640 2637 -2502 2553 0
2640 -2637 2502 2553 0
2640 -2637 -2502 -2553 0
-2639 2637 2502 0
-2639 2637 2553 0
-2639 2502 2553 0
2639 -2637 -2502 0
2639 -2637 -2553 0
2639 -2502 -2553 0
-2642 2639 2504 2554 0
-2642 2639 -2504 -2554 0
-2642 -2639 2504 -2554 0
2642 2639 2504 -2554 0
-2642 -2639 -2504 2554 0
2642 2639 -2504 2554 0
2642 -2639 2504 2554 0
2642 -2639 -2504 -2554 0
-2641 2639 2504 0
-2641 2639 2554 0
-2641 2504 2554 0
2641 -2639 -2504 0
2641 -2639 -2554 0
2641 -2504 -2554 0
-2644 2641 2506 2555 0
-2644 2641 -2506 -2555 0
-2644 -2641 2506 -2555 0
2644 2641 2506 -2555 0
-2644 -2641 -2506 2555 0
2644 2641 -2506 2555 0
2644 -2641 2506 2555 0
2644 -2641 -2506 -2555 0
-2643 2641 2506 0
-2643 2641 2555 0
-2643 2506 2555 0
2643 -2641 -2506 0
2643 -2641 -2555 0
2643 -2506 -2555 0
-2646 2643 2508 2556 0
-2646 2643 -2508 -2556 0
-2646 -2643 2508 -2556 0
2646 2643 2508 -2556 0
-2646 -2643 -2508 2556 0
2646 2643 -2508 2556 0
2646 -2643 2508 2556 0
2646 -2643 -2508 -2556 0
-2645 2643 2508 0
-2645 2643 2556 0
-2645 2508 2556 0
2645 -2643 -2508 0
2645 -2643 -2556 0
2645 -2508 -2556 0
-2648 2645 2510 2557 0
-2648 2645 -2510 -2557 0
-2648 -2645 2510 -2557 0
2648 2645 2510 -2557 0
-2648 -2645 -2510 2557 0
2648 2645 -2510 2557 0
2648 -2645 2510 2557 0
2648 -2645 -2510 -2557 0
-2647 2645 2510 0
-2647 2645 2557 0
-2647 2510 2557 0
2647 -2645 -2510 0
2647 -2645 -2557 0
2647 -2510 -2557 0
-2650 2647 2512 2558 0
-2650 2647 -2512 -2558 0
-2650 -2647 2512 -2558 0
2650 2647 2512 -2558 0
-2650 -2647 -2512 2558 0
2650 2647 -2512 2558 0
2650 -2647 2512 2558 0
2650 -2647 -2512 -2558 0
-2649 2647 2512 0
-2649 2647 2558 0
-2649 2512 2558 0
2649 -2647 -2512 0
2649 -2647 -2558 0
2649 -2512 -2558 0
-2652 2649 2514 2559 0
-2652 2649 -2514 -2559 0
-2652 -2649 2514 -2559 0
2652 2649 2514 -2559 0
-2652 -2649 -2514 2559 0
2652 2649 -2514 2559 0
2652 -2649 2514 2559 0
2652 -2649 -2514 -2559 0
-2651 2649 2514 0
-2651 2649 2559 0
-2651 2514 2559 0
2651 -2649 -2514 0
2651 -2649 -2559 0
2651 -2514 -2559 0
-2654 2651 2516 2560 0
-2654 2651 -2516 -2560 0
-2654 -2651 2516 -2560 0
2654 2651 2516 -2560 0
-2654 -2651 -2516 2560 0
2654 2651 -2516 2560 0
2654 -2651 2516 2560 0
2654 -2651 -2516 -2560 0
-2653 2651 2516 0
-2653 2651 2560 0
-2653 2516 2560 0
2653 -2651 -2516 0
2653 -2651 -2560 0
2653 -2516 -2560 0
-2656 2653 2518 2561 0
-2656 2653 -2518 -2561 0
-2656 -2653 2518 -2561 0
2656 2653 2518 -2561 0
-2656 -2653 -2518 2561 0
2656 2653 -2518 2561 0
2656 -2653 2518 2561 0
2656 -2653 -2518 -2561 0
-2655 2653 2518 0
-2655 2653 2561 0
-2655 2518 2561 0
2655 -2653 -2518 0
2655 -2653 -2561 0
2655 -2518 -2561 0
-2658 2655 2520 2562 0
-2658 2655 -2520 -2562 0
-2658 -2655 2520 -2562 0
2658 2655 2520 -2562 0
-2658 -2655 -2520 2562 0
2658 2655 -2520 2562 0
2658 -2655 2520 2562 0
2658 -2655 -2520 -2562 0
-2657 2655 2520 0
-2657 2655 2562 0
-2657 2520 2562 0
2657 -2655 -2520 0
2657 -2655 -2562 0
2657 -2520 -2562 0
-2660 2657 2522 2563 0
-2660 2657 -2522 -2563 0
-2660 -2657 2522 -2563 0
2660 2657 2522 -2563 0
-2660 -2657 -2522 2563 0
2660 2657 -2522 2563 0
2660 -2657 2522 2563 0
2660 -2657 -2522 -2563 0
-2659 2657 2522 0
-2659 2657 2563 0
-2659 2522 2563 0
2659 -2657 -2522 0
2659 -2657 -2563 0
2659 -2522 -2563 0
-2662 2659 2524 2564 0
-2662 2659 -2524 -2564 0
-2662 -2659 2524 -2564 0
2662 2659 2524 -2564 0
-2662 -2659 -2524 2564 0
2662 2659 -2524 2564 0
2662 -2659 2524 2564 0
2662 -2659 -2524 -2564 0
-2661 2659 2524 0
-2661 2659 2564 0
-2661 2524 2564 0
2661 -2659 -2524 0
2661 -2659 -2564 0
2661 -2524 -2564 0
-2664 2661 2526 2565 0
-2664 2661 -2526 -2565 0
-2664 -2661 2526 -2565 0
2664 2661 2526 -2565 0
-2664 -2661 -2526 2565 0
2664 2661 -2526 2565 0
2664 -2661 2526 2565 0
2664 -2661 -2526 -2565 0
-2663 2661 2526 0
-2663 2661 2565 0
-2663 2526 2565 0
2663 -2661 -2526 0
2663 -2661 -2565 0
2663 -2526 -2565 0
-2666 2663 2528 2566 0
-2666 2663 -2528 -2566 0
-2666 -2663 2528 -2566 0
2666 2663 2528 -2566 0
-2666 -2663 -2528 2566 0
2666 2663 -2528 2566 0
2666 -2663 2528 2566 0
2666 -2663 -2528 -2566 0
-2665 2663 2528 0
-2665 2663 2566 0
-2665 2528 2566 0
2665 -2663 -2528 0
2665 -2663 -2566 0
2665 -2528 -2566 0
-2668 2665 2530 2567 0
-2668 2665 -2530 -2567 0
-2668 -2665 2530 -2567 0
2668 2665 2530 -2567 0
-2668 -2665 -2530 2567 0
2668 2665 -2530 2567 0
2668 -2665 2530 2567 0
2668 -2665 -2530 -2567 0
-2667 2665 2530 0
-2667 2665 2567 0
-2667 2530 2567 0
2667 -2665 -2530 0
2667 -2665 -2567 0
2667 -2530 -2567 0
-2670 2667 2532 2568 0
-2670 2667 -2532 -2568 0
-2670 -2667 2532 -2568 0
2670 2667 2532 -2568 0
-2670 -2667 -2532 2568 0
2670 2667 -2532 2568 0
2670 -2667 2532 2568 0
2670 -2667 -2532 -2568 0
-2669 2667 2532 0
-2669 2667 2568 0
-2669 2532 2568 0
2669 -2667 -2532 0
2669 -2667 -2568 0
2669 -2532 -2568 0
-2672 2669 2534 2569 0
-2672 2669 -2534 -2569 0
-2672 -2669 2534 -2569 0
2672 2669 2534 -2569 0
-2672 -2669 -2534 2569 0
2672 2669 -2534 2569 0
2672 -2669 2534 2569 0
2672 -2669 -2534 -2569 0
-2671 2669 2534 0
-2671 2669 2569 0
-2671 2534 2569 0
2671 -2669 -2534 0
2671 -2669 -2569 0
2671 -2534 -2569 0
-2674 2671 2536 2570 0
-2674 2671 -2536 -2570 0
-2674 -2671 2536 -2570 0
2674 2671 2536 -2570 0
-2674 -2671 -2536 2570 0
2674 2671 -2536 2570 0
2674 -2671 2536 2570 0
2674 -2671 -2536 -2570 0
-2673 2671 2536 0
-2673 2671 2570 0
-2673 2536 2570 0
2673 -2671 -2536 0
2673 -2671 -2570 0
2673 -2536 -2570 0
-2676 2673 2538 2571 0
-2676 2673 -2538 -2571 0
-2676 -2673 2538 -2571 0
2676 2673 2538 -2571 0
-2676 -2673 -2538 2571 0
2676 2673 -2538 2571 0
2676 -2673 2538 2571 0
2676 -2673 -2538 -2571 0
-2675 2673 2538 0
-2675 2673 2571 0
-2675 2538 2571 0
2675 -2673 -2538 0
2675 -2673 -2571 0
2675 -2538 -2571 0
-2678 2675 2540 2572 0
-2678 2675 -2540 -2572 0
-2678 -2675 2540 -2572 0
2678 2675 2540 -2572 0
-2678 -2675 -2540 2572 0
2678 2675 -2540 2572 0
2678 -2675 2540 2572 0
2678 -2675 -2540 -2572 0
-2677 2675 2540 0
-2677 2675 2572 0
-2677 2540 2572 0
2677 -2675 -2540 0
2677 -2675 -2572 0
2677 -2540 -2572 0
-2680 2677 2542 2573 0
-2680 2677 -2542 -2573 0
-2680 -2677 2542 -2573 0
2680 2677 2542 -2573 0
-2680 -2677 -2542 2573 0
2680 2677 -2542 2573 0
2680 -2677 2542 2573 0
2680 -2677 -2542 -2573 0
-2679 2677 2542 0
-2679 2677 2573 0
-2679 2542 2573 0
2679 -2677 -2542 0
2679 -2677 -2573 0
2679 -2542 -2573 0
-2682 2679 2541 2574 0
-2682 2679 -2541 -2574 0
-2682 -2679 2541 -2574 0
2682 2679 2541 -2574 0
-2682 -2679 -2541 2574 0
2682 2679 -2541 2574 0
2682 -2679 2541 2574 0
2682 -2679 -2541 -2574 0
-2681 2679 2541 0
-2681 2679 2574 0
-2681 2541 2574 0
2681 -2679 -2541 0
2681 -2679 -2574 0
2681 -2541 -2574 0
-2683 1 0
-2683 24 0
2683 -1 -24 0
-2684 2 0
-2684 24 0
2684 -2 -24 0
-2685 3 0
-2685 24 0
2685 -3 -24 0
-2686 4 0
-2686 24 0
2686 -4 -24 0
-2687 5 0
-2687 24 0
2687 -5 -24 0
-2688 6 0
-2688 24 0
2688 -6 -24 0
-2689 7 0
-2689 24 0
2689 -7 -24 0
-2690 8 0
-2690 24 0
2690 -8 -24 0
-2691 9 0
-2691 24 0
2691 -9 -24 0
-2692 10 0
-2692 24 0
2692 -10 -24 0
-2693 11 0
-2693 24 0
2693 -11 -24 0
-2694 12 0
-2694 24 0
2694 -12 -24 0
-2695 13 0
-2695 24 0
2695 -13 -24 0
-2696 14 0
-2696 24 0
2696 -14 -24 0
-2697 15 0
-2697 24 0
2697 -15 -24 0
-2698 16 0
-2698 24 0
2698 -16 -24 0
-2699 17 0
-2699 24 0
2699 -17 -24 0
-2700 18 0
-2700 24 0
2700 -18 -24 0
-2701 19 0
-2701 24 0
2701 -19 -24 0
-2702 20 0
-2702 24 0
2702 -20 -24 0
-2703 21 0
-2703 24 0
2703 -21 -24 0
-2704 22 0
-2704 24 0
2704 -22 -24 0
-2705 23 0
-2705 24 0
2705 -23 -24 0
-2706 24 0
2706 -24 0
-2707 25 0
-2707 24 0
2707 -25 -24 0
-2708 26 0
-2708 24 0
2708 -26 -24 0
-2709 27 0
-2709 24 0
2709 -27 -24 0
-2710 28 0
-2710 24 0
2710 -28 -24 0
-2711 29 0
-2711 24 0
2711 -29 -24 0
-2712 30 0
-2712 24 0
2712 -30 -24 0
-2713 31 0
-2713 24 0
2713 -31 -24 0
-2714 32 0
-2714 24 0
2714 -32 -24 0
-2576 2716 0
2576 -2716 0
-2715 0
2578 2715 -2718 0
-2578 -2715 -2718 0
-2578 2715 2718 0
2578 -2715 2718 0
-2717 2715 0
-2717 2578 0
2717 -2715 -2578 0
2580 2717 -2720 0
-2580 -2717 -2720 0
-2580 2717 2720 0
2580 -2717 2720 0
-2719 2717 0
-2719 2580 0
2719 -2717 -2580 0
2582 2719 -2722 0
-2582 -2719 -2722 0
-2582 2719 2722 0
2582 -2719 2722 0
-2721 2719 0
-2721 2582 0
2721 -2719 -2582 0
2584 2721 -2724 0
-2584 -2721 -2724 0
-2584 2721 2724 0
2584 -2721 2724 0
-2723 2721 0
-2723 2584 0
2723 -2721 -2584 0
2586 2723 -2726 0
-2586 -2723 -2726 0
-2586 2723 2726 0
2586 -2723 2726 0
-2725 2723 0
-2725 2586 0
2725 -2723 -2586 0
2588 2725 -2728 0
-2588 -2725 -2728 0
-2588 2725 2728 0
2588 -2725 2728 0
-2727 2725 0
-2727 2588 0
2727 -2725 -2588 0
2590 2727 -2730 0
-2590 -2727 -2730 0
-2590 2727 2730 0
2590 -2727 2730 0
-2729 2727 0
-2729 2590 0
2729 -2727 -2590 0
2592 2729 -2732 0
-2592 -2729 -2732 0
-2592 2729 2732 0
2592 -2729 2732 0
-2731 2729 0
-2731 2592 0
2731 -2729 -2592 0
2594 2731 -2734 0
-2594 -2731 -2734 0
-2594 2731 2734 0
2594 -2731 2734 0
-2733 2731 0
-2733 2594 0
2733 -2731 -2594 0
2596 2733 -2736 0
-2596 -2733 -2736 0
-2596 2733 2736 0
2596 -2733 2736 0
-2735 2733 0
-2735 2596 0
2735 -2733 -2596 0
2598 2735 -2738 0
-2598 -2735 -2738 0
-2598 2735 2738 0
2598 -2735 2738 0
-2737 2735 0
-2737 2598 0
2737 -2735 -2598 0
2600 2737 -2740 0
-2600 -2737 -2740 0
-2600 2737 2740 0
2600 -2737 2740 0
-2739 2737 0
-2739 2600 0
2739 -2737 -2600 0
2602 2739 -2742 0
-2602 -2739 -2742 0
-2602 2739 2742 0
2602 -2739 2742 0
-2741 2739 0
-2741 2602 0
2741 -2739 -2602 0
2604 2741 -2744 0
-2604 -2741 -2744 0
-2604 2741 2744 0
2604 -2741 2744 0
-2743 2741 0
-2743 2604 0
2743 -2741 -2604 0
2606 2743 -2746 0
-2606 -2743 -2746 0
-2606 2743 2746 0
2606 -2743 2746 0
-2745 2743 0
-2745 2606 0
2745 -2743 -2606 0
2608 2745 -2748 0
-2608 -2745 -2748 0
-2608 2745 2748 0
2608 -2745 2748 0
-2747 2745 0
-2747 2608 0
2747 -2745 -2608 0
2610 2747 -2750 0
-2610 -2747 -2750 0
-2610 2747 2750 0
2610 -2747 2750 0
-2749 2747 0
-2749 2610 0
2749 -2747 -2610 0
2612 2749 -2752 0
-2612 -2749 -2752 0
-2612 2749 2752 0
2612 -2749 2752 0
-2751 2749 0
-2751 2612 0
2751 -2749 -2612 0
2614 2751 -2754 0
-2614 -2751 -2754 0
-2614 2751 2754 0
2614 -2751 2754 0
-2753 2751 0
-2753 2614 0
2753 -2751 -2614 0
2616 2753 -2756 0
-2616 -2753 -2756 0
-2616 2753 2756 0
2616 -2753 2756 0
-2755 2753 0
-2755 2616 0
2755 -2753 -2616 0
2618 2755 -2758 0
-2618 -2755 -2758 0
-2618 2755 2758 0
2618 -2755 2758 0
-2757 2755 0
-2757 2618 0
2757 -2755 -2618 0
2620 2757 -2760 0
-2620 -2757 -2760 0
-2620 2757 2760 0
2620 -2757 2760 0
-2759 2757 0
-2759 2620 0
2759 -2757 -2620 0
-2762 2759 2622 2683 0
-2762 2759 -2622 -2683 0
-2762 -2759 2622 -2683 0
2762 2759 2622 -2683 0
-2762 -2759 -2622 2683 0
2762 2759 -2622 2683 0
2762 -2759 2622 2683 0
2762 -2759 -2622 -2683 0
-2761 2759 2622 0
-2761 2759 2683 0
-2761 2622 2683 0
2761 -2759 -2622 0
2761 -2759 -2683 0
2761 -2622 -2683 0
-2764 2761 2624 2684 0
-2764 2761 -2624 -2684 0
-2764 -2761 2624 -2684 0
2764 2761 2624 -2684 0
-2764 -2761 -2624 2684 0
2764 2761 -2624 2684 0
2764 -2761 2624 2684 0
2764 -2761 -2624 -2684 0
-2763 2761 2624 0
-2763 2761 2684 0
-2763 2624 2684 0
2763 -2761 -2624 0
2763 -2761 -2684 0
2763 -2624 -2684 0
-2766 2763 2626 2685 0
-2766 2763 -2626 -2685 0
-2766 -2763 2626 -2685 0
2766 2763 2626 -2685 0
-2766 -2763 -2626 2685 0
2766 2763 -2626 2685 0
2766 -2763 2626 2685 0
2766 -2763 -2626 -2685 0
-2765 2763 2626 0
-2765 2763 2685 0
-2765 2626 2685 0
2765 -2763 -2626 0
2765 -2763 -2685 0
2765 -2626 -2685 0
-2768 2765 2628 2686 0
-2768 2765 -2628 -2686 0
-2768 -2765 2628 -2686 0
2768 2765 2628 -2686 0
-2768 -2765 -2628 2686 0
2768 2765 -2628 2686 0
2768 -2765 2628 2686 0
2768 -2765 -2628 -2686 0
-2767 2765 2628 0
-2767 2765 2686 0
-2767 2628 2686 0
2767 -2765 -2628 0
2767 -2765 -2686 0
2767 -2628 -2686 0
-2770 2767 2630 2687 0
-2770 2767 -2630 -2687 0
-2770 -2767 2630 -2687 0
2770 2767 2630 -2687 0
-2770 -2767 -2630 2687 0
2770 2767 -2630 2687 0
2770 -2767 2630 2687 0
2770 -2767 -2630 -2687 0
-2769 2767 2630 0
-2769 2767 2687 0
-2769 2630 2687 0
2769 -2767 -2630 0
2769 -2767 -2687 0
2769 -2630 -2687 0
-2772 2769 2632 2688 0
-2772 2769 -2632 -2688 0
-2772 -2769 2632 -2688 0
2772 2769 2632 -2688 0
-2772 -2769 -2632 2688 0
2772 2769 -2632 2688 0
2772 -2769 2632 2688 0
2772 -2769 -2632 -2688 0
-2771 2769 2632 0
-2771 2769 2688 0
-2771 2632 2688 0
2771 -2769 -2632 0
2771 -2769 -2688 0
2771 -2632 -2688 0
-2774 2771 2634 2689 0
-2774 2771 -2634 -2689 0
-2774 -2771 2634 -2689 0
2774 2771 2634 -2689 0
-2774 -2771 -2634 2689 0
2774 2771 -2634 2689 0
2774 -2771 2634 2689 0
2774 -2771 -2634 -2689 0
-2773 2771 2634 0
-2773 2771 2689 0
-2773 2634 2689 0
2773 -2771 -2634 0
2773 -2771 -2689 0
2773 -2634 -2689 0
-2776 2773 2636 2690 0
-2776 2773 -2636 -2690 0
-2776 -2773 2636 -2690 0
2776 2773 2636 -2690 0
-2776 -2773 -2636 2690 0
2776 2773 -2636 2690 0
2776 -2773 2636 2690 0
2776 -2773 -2636 -2690 0
-2775 2773 2636 0
-2775 2773 2690 0
-2775 2636 2690 0
2775 -2773 -2636 0
2775 -2773 -2690 0
2775 -2636 -2690 0
-2778 2775 2638 2691 0
-2778 2775 -2638 -2691 0
-2778 -2775 2638 -2691 0
2778 2775 2638 -2691 0
-2778 -2775 -2638 2691 0
2778 2775 -2638 2691 0
2778 -2775 2638 2691 0
2778 -2775 -2638 -2691 0
-2777 2775 2638 0
-2777 2775 2691 0
-2777 2638 2691 0
2777 -2775 -2638 0
2777 -2775 -2691 0
2777 -2638 -2691 0
-2780 2777 2640 2692 0
-2780 2777 -2640 -2692 0
-2780 -2777 2640 -2692 0
2780 2777 2640 -2692 0
-2780 -2777 -2640 2692 0
2780 2777 -2640 2692 0
2780 -2777 2640 2692 0
2780 -2777 -2640 -2692 0
-2779 2777 2640 0
-2779 2777 2692 0
-2779 2640 2692 0
2779 -2777 -2640 0
2779 -2777 -2692 0
2779 -2640 -2692 0
-2782 2779 2642 2693 0
-2782 2779 -2642 -2693 0
-2782 -2779 2642 -2693 0
2782 2779 2642 -2693 0
-2782 -2779 -2642 2693 0
2782 2779 -2642 2693 0
2782 -2779 2642 2693 0
2782 -2779 -2642 -2693 0
-2781 2779 2642 0
-2781 2779 2693 0
-2781 2642 2693 0
2781 -2779 -2642 0
2781 -2779 -2693 0
2781 -2642 -2693 0
-2784 2781 2644 2694 0
-2784 2781 -2644 -2694 0
-2784 -2781 2644 -2694 0
2784 2781 2644 -2694 0
-2784 -2781 -2644 2694 0
2784 2781 -2644 2694 0
2784 -2781 2644 2694 0
2784 -2781 -2644 -2694 0
-2783 2781 2644 0
-2783 2781 2694 0
-2783 2644 2694 0
2783 -2781 -2644 0
2783 -2781 -2694 0
2783 -2644 -2694 0
-2786 2783 2646 2695 0
-2786 2783 -2646 -2695 0
-2786 -2783 2646 -2695 0
2786 2783 2646 -2695 0
-2786 -2783 -2646 2695 0
2786 2783 -2646 2695 0
2786 -2783 2646 2695 0
2786 -2783 -2646 -2695 0
-2785 2783 2646 0
-2785 2783 2695 0
-2785 2646 2695 0
2785 -2783 -2646 0
2785 -2783 -2695 0
2785 -2646 -2695 0
-2788 2785 2648 2696 0
-2788 2785 -2648 -2696 0
-2788 -2785 2648 -2696 0
2788 2785 2648 -2696 0
-2788 -2785 -2648 2696 0
2788 2785 -2648 2696 0
2788 -2785 2648 2696 0
2788 -2785 -2648 -2696 0
-2787 2785 2648 0
-2787 2785 2696 0
-2787 2648 2696 0
2787 -2785 -2648 0
2787 -2785 -2696 0
2787 -2648 -2696 0
-2790 2787 2650 2697 0
-2790 2787 -2650 -2697 0
-2790 -2787 2650 -2697 0
2790 2787 2650 -2697 0
-2790 -2787 -2650 2697 0
2790 2787 -2650 2697 0
2790 -2787 2650 2697 0
2790 -2787 -2650 -2697 0
-2789 2787 2650 0
-2789 2787 2697 0
-2789 2650 2697 0
2789 -2787 -2650 0
2789 -2787 -2697 0
2789 -2650 -2697 0
-2792 2789 2652 2698 0
-2792 2789 -2652 -2698 0
-2792 -2789 2652 -2698 0
2792 2789 2652 -2698 0
-2792 -2789 -2652 2698 0
2792 2789 -2652 2698 0
2792 -2789 2652 2698 0
2792 -2789 -2652 -2698 0
-2791 2789 2652 0
-2791 2789 2698 0
-2791 2652 2698 0
2791 -2789 -2652 0
2791 -2789 -2698 0
2791 -2652 -2698 0
-2794 2791 2654 2699 0
-2794 2791 -2654 -2699 0
-2794 -2791 2654 -2699 0
2794 2791 2654 -2699 0
-2794 -2791 -2654 2699 0
2794 2791 -2654 2699 0
2794 -2791 2654 2699 0
2794 -2791 -2654 -2699 0
-2793 2791 2654 0
-2793 2791 2699 0
-2793 2654 2699 0
2793 -2791 -2654 0
2793 -2791 -2699 0
2793 -2654 -2699 0
-2796 2793 2656 2700 0
-2796 2793 -2656 -2700 0
-2796 -2793 2656 -2700 0
2796 2793 2656 -2700 0
-2796 -2793 -2656 2700 0
2796 2793 -2656 2700 0
2796 -2793 2656 2700 0
2796 -2793 -2656 -2700 0
-2795 2793 2656 0
-2795 2793 2700 0
-2795 2656 2700 0
2795 -2793 -2656 0
2795 -2793 -2700 0
2795 -2656 -2700 0
-2798 2795 2658 2701 0
-2798 2795 -2658 -2701 0
-2798 -2795 2658 -2701 0
2798 2795 2658 -2701 0
-2798 -2795 -2658 2701 0
2798 2795 -2658 2701 0
2798 -2795 2658 2701 0
2798 -2795 -2658 -2701 0
-2797 2795 2658 0
-2797 2795 2701 0
-2797 2658 2701 0
2797 -2795 -2658 0
2797 -2795 -2701 0
2797 -2658 -2701 0
-2800 2797 2660 2702 0
-2800 2797 -2660 -2702 0
-2800 -2797 2660 -2702 0
2800 2797 2660 -2702 0
-2800 -2797 -2660 2702 0
2800 2797 -2660 2702 0
2800 -2797 2660 2702 0
2800 -2797 -2660 -2702 0
-2799 2797 2660 0
-2799 2797 2702 0
-2799 2660 2702 0
2799 -2797 -2660 0
2799 -2797 -2702 0
2799 -2660 -2702 0
-2802 2799 2662 2703 0
-2802 2799 -2662 -2703 0
-2802 -2799 2662 -2703 0
2802 2799 2662 -2703 0
-2802 -2799 -2662 2703 0
2802 2799 -2662 2703 0
2802 -2799 2662 2703 0
2802 -2799 -2662 -2703 0
-2801 2799 2662 0
-2801 2799 2703 0
-2801 2662 2703 0
2801 -2799 -2662 0
2801 -2799 -2703 0
2801 -2662 -2703 0
-2804 2801 2664 2704 0
-2804 2801 -2664 -2704 0
-2804 -2801 2664 -2704 0
2804 2801 2664 -2704 0
-2804 -2801 -2664 2704 0
2804 2801 -2664 2704 0
2804 -2801 2664 2704 0
2804 -2801 -2664 -2704 0
-2803 2801 2664 0
-2803 2801 2704 0
-2803 2664 2704 0
2803 -2801 -2664 0
2803 -2801 -2704 0
2803 -2664 -2704 0
-2806 2803 2666 2705 0
-2806 2803 -2666 -2705 0
-2806 -2803 2666 -2705 0
2806 2803 2666 -2705 0
-2806 -2803 -2666 2705 0
2806 2803 -2666 2705 0
2806 -2803 2666 2705 0
2806 -2803 -2666 -2705 0
-2805 2803 2666 0
-2805 2803 2705 0
-2805 2666 2705 0
2805 -2803 -2666 0
2805 -2803 -2705 0
2805 -2666 -2705 0
-2808 2805 2668 2706 0
-2808 2805 -2668 -2706 0
-2808 -2805 2668 -2706 0
2808 2805 2668 -2706 0
-2808 -2805 -2668 2706 0
2808 2805 -2668 2706 0
2808 -2805 2668 2706 0
2808 -2805 -2668 -2706 0
-2807 2805 2668 0
-2807 2805 2706 0
-2807 2668 2706 0
2807 -2805 -2668 0
2807 -2805 -2706 0
2807 -2668 -2706 0
-2810 2807 2670 2707 0
-2810 2807 -2670 -2707 0
-2810 -2807 2670 -2707 0
2810 2807 2670 -2707 0
-2810 -2807 -2670 2707 0
2810 2807 -2670 2707 0
2810 -2807 2670 2707 0
2810 -2807 -2670 -2707 0
-2809 2807 2670 0
-2809 2807 2707 0
-2809 2670 2707 0
2809 -2807 -2670 0
2809 -2807 -2707 0
2809 -2670 -2707 0
-2812 2809 2672 2708 0
-2812 2809 -2672 -2708 0
-2812 -2809 2672 -2708 0
2812 2809 2672 -2708 0
-2812 -2809 -2672 2708 0
2812 2809 -2672 2708 0
2812 -2809 2672 2708 0
2812 -2809 -2672 -2708 0
-2811 2809 2672 0
-2811 2809 2708 0
-2811 2672 2708 0
2811 -2809 -2672 0
2811 -2809 -2708 0
2811 -2672 -2708 0
-2814 2811 2674 2709 0
-2814 2811 -2674 -2709 0
-2814 -2811 2674 -2709 0
2814 2811 2674 -2709 0
-2814 -2811 -2674 2709 0
2814 2811 -2674 2709 0
2814 -2811 2674 2709 0
2814 -2811 -2674 -2709 0
-2813 2811 2674 0
-2813 2811 2709 0
-2813 2674 2709 0
2813 -2811 -2674 0
2813 -2811 -2709 0
2813 -2674 -2709 0
-2816 2813 2676 2710 0
-2816 2813 -2676 -2710 0
-2816 -2813 2676 -2710 0
2816 2813 2676 -2710 0
-2816 -2813 -2676 2710 0
2816 2813 -2676 2710 0
2816 -2813 2676 2710 0
2816 -2813 -2676 -2710 0
-2815 2813 2676 0
-2815 2813 2710 0
-2815 2676 2710 0
2815 -2813 -2676 0
2815 -2813 -2710 0
2815 -2676 -2710 0
-2818 2815 2678 2711 0
-2818 2815 -2678 -2711 0
-2818 -2815 2678 -2711 0
2818 2815 2678 -2711 0
-2818 -2815 -2678 2711 0
2818 2815 -2678 2711 0
2818 -2815 2678 2711 0
2818 -2815 -2678 -2711 0
-2817 2815 2678 0
-2817 2815 2711 0
-2817 2678 2711 0
2817 -2815 -2678 0
2817 -2815 -2711 0
2817 -2678 -2711 0
-2820 2817 2680 2712 0
-2820 2817 -2680 -2712 0
-2820 -2817 2680 -2712 0
2820 2817 2680 -2712 0
-2820 -2817 -2680 2712 0
2820 2817 -2680 2712 0
2820 -2817 2680 2712 0
2820 -2817 -2680 -2712 0
-2819 2817 2680 0
-2819 2817 2712 0
-2819 2680 2712 0
2819 -2817 -2680 0
2819 -2817 -2712 0
2819 -2680 -2712 0
-2822 2819 2682 2713 0
-2822 2819 -2682 -2713 0
-2822 -2819 2682 -2713 0
2822 2819 2682 -2713 0
-2822 -2819 -2682 2713 0
2822 2819 -2682 2713 0
2822 -2819 2682 2713 0
2822 -2819 -2682 -2713 0
-2821 2819 2682 0
-2821 2819 2713 0
-2821 2682 2713 0
2821 -2819 -2682 0
2821 -2819 -2713 0
2821 -2682 -2713 0
-2824 2821 2681 2714 0
-2824 2821 -2681 -2714 0
-2824 -2821 2681 -2714 0
2824 2821 2681 -2714 0
-2824 -2821 -2681 2714 0
2824 2821 -2681 2714 0
2824 -2821 2681 2714 0
2824 -2821 -2681 -2714 0
-2823 2821 2681 0
-2823 2821 2714 0
-2823 2681 2714 0
2823 -2821 -2681 0
2823 -2821 -2714 0
2823 -2681 -2714 0
-2825 1 0
-2825 25 0
2825 -1 -25 0
-2826 2 0
-2826 25 0
2826 -2 -25 0
-2827 3 0
-2827 25 0
2827 -3 -25 0
-2828 4 0
-2828 25 0
2828 -4 -25 0
-2829 5 0
-2829 25 0
2829 -5 -25 0
-2830 6 0
-2830 25 0
2830 -6 -25 0
-2831 7 0
-2831 25 0
2831 -7 -25 0
-2832 8 0
-2832 25 0
2832 -8 -25 0
-2833 9 0
-2833 25 0
2833 -9 -25 0
-2834 10 0
-2834 25 0
2834 -10 -25 0
-2835 11 0
-2835 25 0
2835 -11 -25 0
-2836 12 0
-2836 25 0
2836 -12 -25 0
-2837 13 0
-2837 25 0
2837 -13 -25 0
-2838 14 0
-2838 25 0
2838 -14 -25 0
-2839 15 0
-2839 25 0
2839 -15 -25 0
-2840 16 0
-2840 25 0
2840 -16 -25 0
-2841 17 0
-2841 25 0
2841 -17 -25 0
-2842 18 0
-2842 25 0
2842 -18 -25 0
-2843 19 0
-2843 25 0
2843 -19 -25 0
-2844 20 0
-2844 25 0
2844 -20 -25 0
-2845 21 0
-2845 25 0
2845 -21 -25 0
-2846 22 0
-2846 25 0
2846 -22 -25 0
-2847 23 0
-2847 25 0
2847 -23 -25 0
-2848 24 0
-2848 25 0
2848 -24 -25 0
-2849 25 0
2849 -25 0
-2850 26 0
-2850 25 0
2850 -26 -25 0
-2851 27 0
-2851 25 0
2851 -27 -25 0
-2852 28 0
-2852 25 0
2852 -28 -25 0
-2853 29 0
-2853 25 0
2853 -29 -25 0
-2854 30 0
-2854 25 0
2854 -30 -25 0
-2855 31 0
-2855 25 0
2855 -31 -25 0
-2856 32 0
-2856 25 0
2856 -32 -25 0
-2716 2858 0
2716 -2858 0
-2857 0
2718 2857 -2860 0
-2718 -2857 -2860 0
-2718 2857 2860 0
2718 -2857 2860 0
-2859 2857 0
-2859 2718 0
2859 -2857 -2718 0
2720 2859 -2862 0
-2720 -2859 -2862 0
-2720 2859 2862 0
2720 -2859 2862 0
-2861 2859 0
-2861 2720 0
2861 -2859 -2720 0
2722 2861 -2864 0
-2722 -2861 -2864 0
-2722 2861 2864 0
2722 -2861 2864 0
-2863 2861 0
-2863 2722 0
2863 -2861 -2722 0
2724 2863 -2866 0
-2724 -2863 -2866 0
-2724 2863 2866 0
2724 -2863 2866 0
-2865 2863 0
-2865 2724 0
2865 -2863 -2724 0
2726 2865 -2868 0
-2726 -2865 -2868 0
-2726 2865 2868 0
2726 -2865 2868 0
-2867 2865 0
-2867 2726 0
2867 -2865 -2726 0
2728 2867 -2870 0
-2728 -2867 -2870 0
-2728 2867 2870 0
2728 -2867 2870 0
-2869 2867 0
-2869 2728 0
2869 -2867 -2728 0
2730 2869 -2872 0
-2730 -2869 -2872 0
-2730 2869 2872 0
2730 -2869 2872 0
-2871 2869 0
-2871 2730 0
2871 -2869 -2730 0
2732 2871 -2874 0
-2732 -2871 -2874 0
-2732 2871 2874 0
2732 -2871 2874 0
-2873 2871 0
-2873 2732 0
2873 -2871 -2732 0
2734 2873 -2876 0
-2734 -2873 -2876 0
-2734 2873 2876 0
2734 -2873 2876 0
-2875 2873 0
-2875 2734 0
2875 -2873 -2734 0
2736 2875 -2878 0
-2736 -2875 -2878 0
-2736 2875 2878 0
2736 -2875 2878 0
-2877 2875 0
-2877 2736 0
2877 -2875 -2736 0
2738 2877 -2880 0
-2738 -2877 -2880 0
-2738 2877 2880 0
2738 -2877 2880 0
-2879 2877 0
-2879 2738 0
2879 -2877 -2738 0
2740 2879 -2882 0
-2740 -2879 -2882 0
-2740 2879 2882 0
2740 -2879 2882 0
-2881 2879 0
-2881 2740 0
2881 -2879 -2740 0
2742 2881 -2884 0
-2742 -2881 -2884 0
-2742 2881 2884 0
2742 -2881 2884 0
-2883 2881 0
-2883 2742 0
2883 -2881 -2742 0
2744 2883 -2886 0
-2744 -2883 -2886 0
-2744 2883 2886 0
2744 -2883 2886 0
-2885 2883 0
-2885 2744 0
2885 -2883 -2744 0
2746 2885 -2888 0
-2746 -2885 -2888 0
-2746 2885 2888 0
2746 -2885 2888 0
-2887 2885 0
-2887 2746 0
2887 -2885 -2746 0
2748 2887 -2890 0
-2748 -2887 -2890 0
-2748 2887 2890 0
2748 -2887 2890 0
-2889 2887 0
-2889 2748 0
2889 -2887 -2748 0
2750 2889 -2892 0
-2750 -2889 -2892 0
-2750 2889 2892 0
2750 -2889 2892 0
-2891 2889 0
-2891 2750 0
2891 -2889 -2750 0
2752 2891 -2894 0
-2752 -2891 -2894 0
-2752 2891 2894 0
2752 -2891 2894 0
-2893 2891 0
-2893 2752 0
2893 -2891 -2752 0
2754 2893 -2896 0
-2754 -2893 -2896 0
-2754 2893 2896 0
2754 -2893 2896 0
-2895 2893 0
-2895 2754 0
2895 -2893 -2754 0
2756 2895 -2898 0
-2756 -2895 -2898 0
-2756 2895 2898 0
2756 -2895 2898 0
-2897 2895 0
-2897 2756 0
2897 -2895 -2756 0
2758 2897 -2900 0
-2758 -2897 -2900 0
-2758 2897 2900 0
2758 -2897 2900 0
-2899 2897 0
-2899 2758 0
2899 -2897 -2758 0
2760 2899 -2902 0
-2760 -2899 -2902 0
-2760 2899 2902 0
2760 -2899 2902 0
-2901 2899 0
-2901 2760 0
2901 -2899 -2760 0
2762 2901 -2904 0
-2762 -2901 -2904 0
-2762 2901 2904 0
2762 -2901 2904 0
-2903 2901 0
-2903 2762 0
2903 -2901 -2762 0
-2906 2903 2764 2825 0
-2906 2903 -2764 -2825 0
-2906 -2903 2764 -2825 0
2906 2903 2764 -2825 0
-2906 -2903 -2764 2825 0
2906 2903 -2764 2825 0
2906 -2903 2764 2825 0
2906 -2903 -2764 -2825 0
-2905 2903 2764 0
-2905 2903 2825 0
-2905 2764 2825 0
2905 -2903 -2764 0
2905 -2903 -2825 0
2905 -2764 -2825 0
-2908 2905 2766 2826 0
-2908 2905 -2766 -2826 0
-2908 -2905 2766 -2826 0
2908 2905 2766 -2826 0
-2908 -2905 -2766 2826 0
2908 2905 -2766 2826 0
2908 -2905 2766 2826 0
2908 -2905 -2766 -2826 0
-2907 2905 2766 0
-2907 2905 2826 0
-2907 2766 2826 0
2907 -2905 -2766 0
2907 -2905 -2826 0
2907 -2766 -2826 0
-2910 2907 2768 2827 0
-2910 2907 -2768 -2827 0
-2910 -2907 2768 -2827 0
2910 2907 2768 -2827 0
-2910 -2907 -2768 2827 0
2910 2907 -2768 2827 0
2910 -2907 2768 2827 0
2910 -2907 -2768 -2827 0
-2909 2907 2768 0
-2909 2907 2827 0
-2909 2768 2827 0
2909 -2907 -2768 0
2909 -2907 -2827 0
2909 -2768 -2827 0
-2912 2909 2770 2828 0
-2912 2909 -2770 -2828 0
-2912 -2909 2770 -2828 0
2912 2909 2770 -2828 0
-2912 -2909 -2770 2828 0
2912 2909 -2770 2828 0
2912 -2909 2770 2828 0
2912 -2909 -2770 -2828 0
-2911 2909 2770 0
-2911 2909 2828 0
-2911 2770 2828 0
2911 -2909 -2770 0
2911 -2909 -2828 0
2911 -2770 -2828 0
-2914 2911 2772 2829 0
-2914 2911 -2772 -2829 0
-2914 -2911 2772 -2829 0
2914 2911 2772 -2829 0
-2914 -2911 -2772 2829 0
2914 2911 -2772 2829 0
2914 -2911 2772 2829 0
2914 -2911 -2772 -2829 0
-2913 2911 2772 0
-2913 2911 2829 0
-2913 2772 2829 0
2913 -2911 -2772 0
2913 -2911 -2829 0
2913 -2772 -2829 0
-2916 2913 2774 2830 0
-2916 2913 -2774 -2830 0
-2916 -2913 2774 -2830 0
2916 2913 2774 -2830 0
-2916 -2913 -2774 2830 0
2916 2913 -2774 2830 0
2916 -2913 2774 2830 0
2916 -2913 -2774 -2830 0
-2915 2913 2774 0
-2915 2913 2830 0
-2915 2774 2830 0
2915 -2913 -2774 0
2915 -2913 -2830 0
2915 -2774 -2830 0
-2918 2915 2776 2831 0
-2918 2915 -2776 -2831 0
-2918 -2915 2776 -2831 0
2918 2915 2776 -2831 0
-2918 -2915 -2776 2831 0
2918 2915 -2776 2831 0
2918 -2915 2776 2831 0
2918 -2915 -2776 -2831 0
-2917 2915 2776 0
-2917 2915 2831 0
-2917 2776 2831 0
2917 -2915 -2776 0
2917 -2915 -2831 0
2917 -2776 -2831 0
-2920 2917 2778 2832 0
-2920 2917 -2778 -2832 0
-2920 -2917 2778 -2832 0
2920 2917 2778 -2832 0
-2920 -2917 -2778 2832 0
2920 2917 -2778 2832 0
2920 -2917 2778 2832 0
2920 -2917 -2778 -2832 0
-2919 2917 2778 0
-2919 2917 2832 0
-2919 2778 2832 0
2919 -2917 -2778 0
2919 -2917 -2832 0
2919 -2778 -2832 0
-2922 2919 2780 2833 0
-2922 2919 -2780 -2833 0
-2922 -2919 2780 -2833 0
2922 2919 2780 -2833 0
-2922 -2919 -2780 2833 0
2922 2919 -2780 2833 0
2922 -2919 2780 2833 0
2922 -2919 -2780 -2833 0
-2921 2919 2780 0
-2921 2919 2833 0
-2921 2780 2833 0
2921 -2919 -2780 0
2921 -2919 -2833 0
2921 -2780 -2833 0
-2924 2921 2782 2834 0
-2924 2921 -2782 -2834 0
-2924 -2921 2782 -2834 0
2924 2921 2782 -2834 0
-2924 -2921 -2782 2834 0
2924 2921 -2782 2834 0
2924 -2921 2782 2834 0
2924 -2921 -2782 -2834 0
-2923 2921 2782 0
-2923 2921 2834 0
-2923 2782 2834 0
2923 -2921 -2782 0
2923 -2921 -2834 0
2923 -2782 -2834 0
-2926 2923 2784 2835 0
-2926 2923 -2784 -2835 0
-2926 -2923 2784 -2835 0
2926 2923 2784 -2835 0
-2926 -2923 -2784 2835 0
2926 2923 -2784 2835 0
2926 -2923 2784 2835 0
2926 -2923 -2784 -2835 0
-2925 2923 2784 0
-2925 2923 2835 0
-2925 2784 2835 0
2925 -2923 -2784 0
2925 -2923 -2835 0
2925 -2784 -2835 0
-2928 2925 2786 2836 0
-2928 2925 -2786 -2836 0
-2928 -2925 2786 -2836 0
2928 2925 2786 -2836 0
-2928 -2925 -2786 2836 0
2928 2925 -2786 2836 0
2928 -2925 2786 2836 0
2928 -2925 -2786 -2836 0
-2927 2925 2786 0
-2927 2925 2836 0
-2927 2786 2836 0
2927 -2925 -2786 0
2927 -2925 -2836 0
2927 -2786 -2836 0
-2930 2927 2788 2837 0
-2930 2927 -2788 -2837 0
-2930 -2927 2788 -2837 0
2930 2927 2788 -2837 0
-2930 -2927 -2788 2837 0
2930 2927 -2788 2837 0
2930 -2927 2788 2837 0
2930 -2927 -2788 -2837 0
-2929 2927 2788 0
-2929 2927 2837 0
-2929 2788 2837 0
2929 -2927 -2788 0
2929 -2927 -2837 0
2929 -2788 -2837 0
-2932 2929 2790 2838 0
-2932 2929 -2790 -2838 0
-2932 -2929 2790 -2838 0
2932 2929 2790 -2838 0
-2932 -2929 -2790 2838 0
2932 2929 -2790 2838 0
2932 -2929 2790 2838 0
2932 -2929 -2790 -2838 0
-2931 2929 2790 0
-2931 2929 2838 0
-2931 2790 2838 0
2931 -2929 -2790 0
2931 -2929 -2838 0
2931 -2790 -2838 0
-2934 2931 2792 2839 0
-2934 2931 -2792 -2839 0
-2934 -2931 2792 -2839 0
2934 2931 2792 -2839 0
-2934 -2931 -2792 2839 0
2934 2931 -2792 2839 0
2934 -2931 2792 2839 0
2934 -2931 -2792 -2839 0
-2933 2931 2792 0
-2933 2931 2839 0
-2933 2792 2839 0
2933 -2931 -2792 0
2933 -2931 -2839 0
2933 -2792 -2839 0
-2936 2933 2794 2840 0
-2936 2933 -2794 -2840 0
-2936 -2933 2794 -2840 0
2936 2933 2794 -2840 0
-2936 -2933 -2794 2840 0
2936 2933 -2794 2840 0
2936 -2933 2794 2840 0
2936 -2933 -2794 -2840 0
-2935 2933 2794 0
-2935 2933 2840 0
-2935 2794 2840 0
2935 -2933 -2794 0
2935 -2933 -2840 0
2935 -2794 -2840 0
-2938 2935 2796 2841 0
-2938 2935 -2796 -2841 0
-2938 -2935 2796 -2841 0
2938 2935 2796 -2841 0
-2938 -2935 -2796 2841 0
2938 2935 -2796 2841 0
2938 -2935 2796 2841 0
2938 -2935 -2796 -2841 0
-2937 2935 2796 0
-2937 2935 2841 0
-2937 2796 2841 0
2937 -2935 -2796 0
2937 -2935 -2841 0
2937 -2796 -2841 0
-2940 2937 2798 2842 0
-2940 2937 -2798 -2842 0
-2940 -2937 2798 -2842 0
2940 2937 2798 -2842 0
-2940 -2937 -2798 2842 0
2940 2937 -2798 2842 0
2940 -2937 2798 2842 0
2940 -2937 -2798 -2842 0
-2939 2937 2798 0
-2939 2937 2842 0
-2939 2798 2842 0
2939 -2937 -2798 0
2939 -2937 -2842 0
2939 -2798 -2842 0
-2942 2939 2800 2843 0
-2942 2939 -2800 -2843 0
-2942 -2939 2800 -2843 0
2942 2939 2800 -2843 0
-2942 -2939 -2800 2843 0
2942 2939 -2800 2843 0
2942 -2939 2800 2843 0
2942 -2939 -2800 -2843 0
-2941 2939 2800 0
-2941 2939 2843 0
-2941 2800 2843 0
2941 -2939 -2800 0
2941 -2939 -2843 0
2941 -2800 -2843 0
-2944 2941 2802 2844 0
-2944 2941 -2802 -2844 0
-2944 -2941 2802 -2844 0
2944 2941 2802 -2844 0
-2944 -2941 -2802 2844 0
2944 2941 -2802 2844 0
2944 -2941 2802 2844 0
2944 -2941 -2802 -2844 0
-2943 2941 2802 0
-2943 2941 2844 0
-2943 2802 2844 0
2943 -2941 -2802 0
2943 -2941 -2844 0
2943 -2802 -2844 0
-2946 2943 2804 2845 0
-2946 2943 -2804 -2845 0
-2946 -2943 2804 -2845 0
2946 2943 2804 -2845 0
-2946 -2943 -2804 2845 0
2946 2943 -2804 2845 0
2946 -2943 2804 2845 0
2946 -2943 -2804 -2845 0
-2945 2943 2804 0
-2945 2943 2845 0
-2945 2804 2845 0
2945 -2943 -2804 0
2945 -2943 -2845 0
2945 -2804 -2845 0
-2948 2945 2806 2846 0
-2948 2945 -2806 -2846 0
-2948 -2945 2806 -2846 0
2948 2945 2806 -2846 0
-2948 -2945 -2806 2846 0
2948 2945 -2806 2846 0
2948 -2945 2806 2846 0
2948 -2945 -2806 -2846 0
-2947 2945 2806 0
-2947 2945 2846 0
-2947 2806 2846 0
2947 -2945 -2806 0
2947 -2945 -2846 0
2947 -2806 -2846 0
-2950 2947 2808 2847 0
-2950 2947 -2808 -2847 0
-2950 -2947 2808 -2847 0
2950 2947 2808 -2847 0
-2950 -2947 -2808 2847 0
2950 2947 -2808 2847 0
2950 -2947 2808 2847 0
2950 -2947 -2808 -2847 0
-2949 2947 2808 0
-2949 2947 2847 0
-2949 2808 2847 0
2949 -2947 -2808 0
2949 -2947 -2847 0
2949 -2808 -2847 0
-2952 2949 2810 2848 0
-2952 2949 -2810 -2848 0
-2952 -2949 2810 -2848 0
2952 2949 2810 -2848 0
-2952 -2949 -2810 2848 0
2952 2949 -2810 2848 0
2952 -2949 2810 2848 0
2952 -2949 -2810 -2848 0
-2951 2949 2810 0
-2951 2949 2848 0
-2951 2810 2848 0
2951 -2949 -2810 0
2951 -2949 -2848 0
2951 -2810 -2848 0
-2954 2951 2812 2849 0
-2954 2951 -2812 -2849 0
-2954 -2951 2812 -2849 0
2954 2951 2812 -2849 0
-2954 -2951 -2812 2849 0
2954 2951 -2812 2849 0
2954 -2951 2812 2849 0
2954 -2951 -2812 -2849 0
-2953 2951 2812 0
-2953 2951 2849 0
-2953 2812 2849 0
2953 -2951 -2812 0
2953 -2951 -2849 0
2953 -2812 -2849 0
-2956 2953 2814 2850 0
-2956 2953 -2814 -2850 0
-2956 -2953 2814 -2850 0
2956 2953 2814 -2850 0
-2956 -2953 -2814 2850 0
2956 2953 -2814 2850 0
2956 -2953 2814 2850 0
2956 -2953 -2814 -2850 0
-2955 2953 2814 0
-2955 2953 2850 0
-2955 2814 2850 0
2955 -2953 -2814 0
2955 -2953 -2850 0
2955 -2814 -2850 0
-2958 2955 2816 2851 0
-2958 2955 -2816 -2851 0
-2958 -2955 2816 -2851 0
2958 2955 2816 -2851 0
-2958 -2955 -2816 2851 0
2958 2955 -2816 2851 0
2958 -2955 2816 2851 0
2958 -2955 -2816 -2851 0
-2957 2955 2816 0
-2957 2955 2851 0
-2957 2816 2851 0
2957 -2955 -2816 0
2957 -2955 -2851 0
2957 -2816 -2851 0
-2960 2957 2818 2852 0
-2960 2957 -2818 -2852 0
-2960 -2957 2818 -2852 0
2960 2957 2818 -2852 0
-2960 -2957 -2818 2852 0
2960 2957 -2818 2852 0
2960 -2957 2818 2852 0
2960 -2957 -2818 -2852 0
-2959 2957 2818 0
-2959 2957 2852 0
-2959 2818 2852 0
2959 -2957 -2818 0
2959 -2957 -2852 0
2959 -2818 -2852 0
-2962 2959 2820 2853 0
-2962 2959 -2820 -2853 0
-2962 -2959 2820 -2853 0
2962 2959 2820 -2853 0
-2962 -2959 -2820 2853 0
2962 2959 -2820 2853 0
2962 -2959 2820 2853 0
2962 -2959 -2820 -2853 0
-2961 2959 2820 0
-2961 2959 2853 0
-2961 2820 2853 0
2961 -2959 -2820 0
2961 -2959 -2853 0
2961 -2820 -2853 0
-2964 2961 2822 2854 0
-2964 2961 -2822 -2854 0
-2964 -2961 2822 -2854 0
2964 2961 2822 -2854 0
-2964 -2961 -2822 2854 0
2964 2961 -2822 2854 0
2964 -2961 2822 2854 0
2964 -2961 -2822 -2854 0
-2963 2961 2822 0
-2963 2961 2854 0
-2963 2822 2854 0
2963 -2961 -2822 0
2963 -2961 -2854 0
2963 -2822 -2854 0
-2966 2963 2824 2855 0
-2966 2963 -2824 -2855 0
-2966 -2963 2824 -2855 0
2966 2963 2824 -2855 0
-2966 -2963 -2824 2855 0
2966 2963 -2824 2855 0
2966 -2963 2824 2855 0
2966 -2963 -2824 -2855 0
-2965 2963 2824 0
-2965 2963 2855 0
-2965 2824 2855 0
2965 -2963 -2824 0
2965 -2963 -2855 0
2965 -2824 -2855 0
-2968 2965 2823 2856 0
-2968 2965 -2823 -2856 0
-2968 -2965 2823 -2856 0
2968 2965 2823 -2856 0
-2968 -2965 -2823 2856 0
2968 2965 -2823 2856 0
2968 -2965 2823 2856 0
2968 -2965 -2823 -2856 0
-2967 2965 2823 0
-2967 2965 2856 0
-2967 2823 2856 0
2967 -2965 -2823 0
2967 -2965 -2856 0
2967 -2823 -2856 0
-2969 1 0
-2969 26 0
2969 -1 -26 0
-2970 2 0
-2970 26 0
2970 -2 -26 0
-2971 3 0
-2971 26 0
2971 -3 -26 0
-2972 4 0
-2972 26 0
2972 -4 -26 0
-2973 5 0
-2973 26 0
2973 -5 -26 0
-2974 6 0
-2974 26 0
2974 -6 -26 0
-2975 7 0
-2975 26 0
2975 -7 -26 0
-2976 8 0
-2976 26 0
2976 -8 -26 0
-2977 9 0
-2977 26 0
2977 -9 -26 0
-2978 10 0
-2978 26 0
2978 -10 -26 0
-2979 11 0
-2979 26 0
2979 -11 -26 0
-2980 12 0
-2980 26 0
2980 -12 -26 0
-2981 13 0
-2981 26 0
2981 -13 -26 0
-2982 14 0
-2982 26 0
2982 -14 -26 0
-2983 15 0
-2983 26 0
2983 -15 -26 0
-2984 16 0
-2984 26 0
2984 -16 -26 0
-2985 17 0
-2985 26 0
2985 -17 -26 0
-2986 18 0
-2986 26 0
2986 -18 -26 0
-2987 19 0
-2987 26 0
2987 -19 -26 0
-2988 20 0
-2988 26 0
2988 -20 -26 0
-2989 21 0
-2989 26 0
2989 -21 -26 0
-2990 22 0
-2990 26 0
2990 -22 -26 0
-2991 23 0
-2991 26 0
2991 -23 -26 0
-2992 24 0
-2992 26 0
2992 -24 -26 0
-2993 25 0
-2993 26 0
2993 -25 -26 0
-2994 26 0
2994 -26 0
-2995 27 0
-2995 26 0
2995 -27 -26 0
-2996 28 0
-2996 26 0
2996 -28 -26 0
-2997 29 0
-2997 26 0
2997 -29 -26 0
-2998 30 0
-2998 26 0
2998 -30 -26 0
-2999 31 0
-2999 26 0
2999 -31 -26 0
-3000 32 0
-3000 26 0
3000 -32 -26 0
-2858 3002 0
2858 -3002 0
-3001 0
2860 3001 -3004 0
-2860 -3001 -3004 0
-2860 3001 3004 0
2860 -3001 3004 0
-3003 3001 0
-3003 2860 0
3003 -3001 -2860 0
2862 3003 -3006 0
-2862 -3003 -3006 0
-2862 3003 3006 0
2862 -3003 3006 0
-3005 3003 0
-3005 2862 0
3005 -3003 -2862 0
2864 3005 -3008 0
-2864 -3005 -3008 0
-2864 3005 3008 0
2864 -3005 3008 0
-3007 3005 0
-3007 2864 0
3007 -3005 -2864 0
2866 3007 -3010 0
-2866 -3007 -3010 0
-2866 3007 3010 0
2866 -3007 3010 0
-3009 3007 0
-3009 2866 0
3009 -3007 -2866 0
2868 3009 -3012 0
-2868 -3009 -3012 0
-2868 3009 3012 0
2868 -3009 3012 0
-3011 3009 0
-3011 2868 0
3011 -3009 -2868 0
2870 3011 -3014 0
-2870 -3011 -3014 0
-2870 3011 3014 0
2870 -3011 3014 0
-3013 3011 0
-3013 2870 0
3013 -3011 -2870 0
2872 3013 -3016 0
-2872 -3013 -3016 0
-2872 3013 3016 0
2872 -3013 3016 0
-3015 3013 0
-3015 2872 0
3015 -3013 -2872 0
2874 3015 -3018 0
-2874 -3015 -3018 0
-2874 3015 3018 0
2874 -3015 3018 0
-3017 3015 0
-3017 2874 0
3017 -3015 -2874 0
2876 3017 -3020 0
-2876 -3017 -3020 0
-2876 3017 3020 0
2876 -3017 3020 0
-3019 3017 0
-3019 2876 0
3019 -3017 -2876 0
2878 3019 -3022 0
-2878 -3019 -3022 0
-2878 3019 3022 0
2878 -3019 3022 0
-3021 3019 0
-3021 2878 0
3021 -3019 -2878 0
2880 3021 -3024 0
-2880 -3021 -3024 0
-2880 3021 3024 0
2880 -3021 3024 0
-3023 3021 0
-3023 2880 0
3023 -3021 -2880 0
2882 3023 -3026 0
-2882 -3023 -3026 0
-2882 3023 3026 0
2882 -3023 3026 0
-3025 3023 0
-3025 2882 0
3025 -3023 -2882 0
2884 3025 -3028 0
-2884 -3025 -3028 0
-2884 3025 3028 0
2884 -3025 3028 0
-3027 3025 0
-3027 2884 0
3027 -3025 -2884 0
2886 3027 -3030 0
-2886 -3027 -3030 0
-2886 3027 3030 0
2886 -3027 3030 0
-3029 3027 0
-3029 2886 0
3029 -3027 -2886 0
2888 3029 -3032 0
-2888 -3029 -3032 0
-2888 3029 3032 0
2888 -3029 3032 0
-3031 3029 0
-3031 2888 0
3031 -3029 -2888 0
2890 3031 -3034 0
-2890 -3031 -3034 0
-2890 3031 3034 0
2890 -3031 3034 0
-3033 3031 0
-3033 2890 0
3033 -3031 -2890 0
2892 3033 -3036 0
-2892 -3033 -3036 0
-2892 3033 3036 0
2892 -3033 3036 0
-3035 3033 0
-3035 2892 0
3035 -3033 -2892 0
2894 3035 -3038 0
-2894 -3035 -3038 0
-2894 3035 3038 0
2894 -3035 3038 0
-3037 3035 0
-3037 2894 0
3037 -3035 -2894 0
2896 3037 -3040 0
-2896 -3037 -3040 0
-2896 3037 3040 0
2896 -3037 3040 0
-3039 3037 0
-3039 2896 0
3039 -3037 -2896 0
2898 3039 -3042 0
-2898 -3039 -3042 0
-2898 3039 3042 0
2898 -3039 3042 0
-3041 3039 0
-3041 2898 0
3041 -3039 -2898 0
2900 3041 -3044 0
-2900 -3041 -3044 0
-2900 3041 3044 0
2900 -3041 3044 0
-3043 3041 0
-3043 2900 0
3043 -3041 -2900 0
2902 3043 -3046 0
-2902 -3043 -3046 0
-2902 3043 3046 0
2902 -3043 3046 0
-3045 3043 0
-3045 2902 0
3045 -3043 -2902 0
2904 3045 -3048 0
-2904 -3045 -3048 0
-2904 3045 3048 0
2904 -3045 3048 0
-3047 3045 0
-3047 2904 0
3047 -3045 -2904 0
2906 3047 -3050 0
-2906 -3047 -3050 0
-2906 3047 3050 0
2906 -3047 3050 0
-3049 3047 0
-3049 2906 0
3049 -3047 -2906 0
-3052 3049 2908 2969 0
-3052 3049 -2908 -2969 0
-3052 -3049 2908 -2969 0
3052 3049 2908 -2969 0
-3052 -3049 -2908 2969 0
3052 3049 -2908 2969 0
3052 -3049 2908 2969 0
3052 -3049 -2908 -2969 0
-3051 3049 2908 0
-3051 3049 2969 0
-3051 2908 2969 0
3051 -3049 -2908 0
3051 -3049 -2969 0
3051 -2908 -2969 0
-3054 3051 2910 2970 0
-3054 3051 -2910 -2970 0
-3054 -3051 2910 -2970 0
3054 3051 2910 -2970 0
-3054 -3051 -2910 2970 0
3054 3051 -2910 2970 0
3054 -3051 2910 2970 0
3054 -3051 -2910 -2970 0
-3053 3051 2910 0
-3053 3051 2970 0
-3053 2910 2970 0
3053 -3051 -2910 0
3053 -3051 -2970 0
3053 -2910 -2970 0
-3056 3053 2912 2971 0
-3056 3053 -2912 -2971 0
-3056 -3053 2912 -2971 0
3056 3053 2912 -2971 0
-3056 -3053 -2912 2971 0
3056 3053 -2912 2971 0
3056 -3053 2912 2971 0
3056 -3053 -2912 -2971 0
-3055 3053 2912 0
-3055 3053 2971 0
-3055 2912 2971 0
3055 -3053 -2912 0
3055 -3053 -2971 0
3055 -2912 -2971 0
-3058 3055 2914 2972 0
-3058 3055 -2914 -2972 0
-3058 -3055 2914 -2972 0
3058 3055 2914 -2972 0
-3058 -3055 -2914 2972 0
3058 3055 -2914 2972 0
3058 -3055 2914 2972 0
3058 -3055 -2914 -2972 0
-3057 3055 2914 0
-3057 3055 2972 0
-3057 2914 2972 0
3057 -3055 -2914 0
3057 -3055 -2972 0
3057 -2914 -2972 0
-3060 3057 2916 2973 0
-3060 3057 -2916 -2973 0
-3060 -3057 2916 -2973 0
3060 3057 2916 -2973 0
-3060 -3057 -2916 2973 0
3060 3057 -2916 2973 0
3060 -3057 2916 2973 0
3060 -3057 -2916 -2973 0
-3059 3057 2916 0
-3059 3057 2973 0
-3059 2916 2973 0
3059 -3057 -2916 0
3059 -3057 -2973 0
3059 -2916 -2973 0
-3062 3059 2918 2974 0
-3062 3059 -2918 -2974 0
-3062 -3059 2918 -2974 0
3062 3059 2918 -2974 0
-3062 -3059 -2918 2974 0
3062 3059 -2918 2974 0
3062 -3059 2918 2974 0
3062 -3059 -2918 -2974 0
-3061 3059 2918 0
-3061 3059 2974 0
-3061 2918 2974 0
3061 -3059 -2918 0
3061 -3059 -2974 0
3061 -2918 -2974 0
-3064 3061 2920 2975 0
-3064 3061 -2920 -2975 0
-3064 -3061 2920 -2975 0
3064 3061 2920 -2975 0
-3064 -3061 -2920 2975 0
3064 3061 -2920 2975 0
3064 -3061 2920 2975 0
3064 -3061 -2920 -2975 0
-3063 3061 2920 0
-3063 3061 2975 0
-3063 2920 2975 0
3063 -3061 -2920 0
3063 -3061 -2975 0
3063 -2920 -2975 0
-3066 3063 2922 2976 0
-3066 3063 -2922 -2976 0
-3066 -3063 2922 -2976 0
3066 3063 2922 -2976 0
-3066 -3063 -2922 2976 0
3066 3063 -2922 2976 0
3066 -3063 2922 2976 0
3066 -3063 -2922 -2976 0
-3065 3063 2922 0
-3065 3063 2976 0
-3065 2922 2976 0
3065 -3063 -2922 0
3065 -3063 -2976 0
3065 -2922 -2976 0
-3068 3065 2924 2977 0
-3068 3065 -2924 -2977 0
-3068 -3065 2924 -2977 0
3068 3065 2924 -2977 0
-3068 -3065 -2924 2977 0
3068 3065 -2924 2977 0
3068 -3065 2924 2977 0
3068 -3065 -2924 -2977 0
-3067 3065 2924 0
-3067 3065 2977 0
-3067 2924 2977 0
3067 -3065 -2924 0
3067 -3065 -2977 0
3067 -2924 -2977 0
-3070 3067 2926 2978 0
-3070 3067 -2926 -2978 0
-3070 -3067 2926 -2978 0
3070 3067 2926 -2978 0
-3070 -3067 -2926 2978 0
3070 3067 -2926 2978 0
3070 -3067 2926 2978 0
3070 -3067 -2926 -2978 0
-3069 3067 2926 0
-3069 3067 2978 0
-3069 2926 2978 0
3069 -3067 -2926 0
3069 -3067 -2978 0
3069 -2926 -2978 0
-3072 3069 2928 2979 0
-3072 3069 -2928 -2979 0
-3072 -3069 2928 -2979 0
3072 3069 2928 -2979 0
-3072 -3069 -2928 2979 0
3072 3069 -2928 2979 0
3072 -3069 2928 2979 0
3072 -3069 -2928 -2979 0
-3071 3069 2928 0
-3071 3069 2979 0
-3071 2928 2979 0
3071 -3069 -2928 0
3071 -3069 -2979 0
3071 -2928 -2979 0
-3074 3071 2930 2980 0
-3074 3071 -2930 -2980 0
-3074 -3071 2930 -2980 0
3074 3071 2930 -2980 0
-3074 -3071 -2930 2980 0
3074 3071 -2930 2980 0
3074 -3071 2930 2980 0
3074 -3071 -2930 -2980 0
-3073 3071 2930 0
-3073 3071 2980 0
-3073 2930 2980 0
3073 -3071 -2930 0
3073 -3071 -2980 0
3073 -2930 -2980 0
-3076 3073 2932 2981 0
-3076 3073 -2932 -2981 0
-3076 -3073 2932 -2981 0
3076 3073 2932 -2981 0
-3076 -3073 -2932 2981 0
3076 3073 -2932 2981 0
3076 -3073 2932 2981 0
3076 -3073 -2932 -2981 0
-3075 3073 2932 0
-3075 3073 2981 0
-3075 2932 2981 0
3075 -3073 -2932 0
3075 -3073 -2981 0
3075 -2932 -2981 0
-3078 3075 2934 2982 0
-3078 3075 -2934 -2982 0
-3078 -3075 2934 -2982 0
3078 3075 2934 -2982 0
-3078 -3075 -2934 2982 0
3078 3075 -2934 2982 0
3078 -3075 2934 2982 0
3078 -3075 -2934 -2982 0
-3077 3075 2934 0
-3077 3075 2982 0
-3077 2934 2982 0
3077 -3075 -2934 0
3077 -3075 -2982 0
3077 -2934 -2982 0
-3080 3077 2936 2983 0
-3080 3077 -2936 -2983 0
-3080 -3077 2936 -2983 0
3080 3077 2936 -2983 0
-3080 -3077 -2936 2983 0
3080 3077 -2936 2983 0
3080 -3077 2936 2983 0
3080 -3077 -2936 -2983 0
-3079 3077 2936 0
-3079 3077 2983 0
-3079 2936 2983 0
3079 -3077 -2936 0
3079 -3077 -2983 0
3079 -2936 -2983 0
-3082 3079 2938 2984 0
-3082 3079 -2938 -2984 0
-3082 -3079 2938 -2984 0
3082 3079 2938 -2984 0
-3082 -3079 -2938 2984 0
3082 3079 -2938 2984 0
3082 -3079 2938 2984 0
3082 -3079 -2938 -2984 0
-3081 3079 2938 0
-3081 3079 2984 0
-3081 2938 2984 0
3081 -3079 -2938 0
3081 -3079 -2984 0
3081 -2938 -2984 0
-3084 3081 2940 2985 0
-3084 3081 -2940 -2985 0
-3084 -3081 2940 -2985 0
3084 3081 2940 -2985 0
-3084 -3081 -2940 2985 0
3084 3081 -2940 2985 0
3084 -3081 2940 2985 0
3084 -3081 -2940 -2985 0
-3083 3081 2940 0
-3083 3081 2985 0
-3083 2940 2985 0
3083 -3081 -2940 0
3083 -3081 -2985 0
3083 -2940 -2985 0
-3086 3083 2942 2986 0
-3086 3083 -2942 -2986 0
-3086 -3083 2942 -2986 0
3086 3083 2942 -2986 0
-3086 -3083 -2942 2986 0
3086 3083 -2942 2986 0
3086 -3083 2942 2986 0
3086 -3083 -2942 -2986 0
-3085 3083 2942 0
-3085 3083 2986 0
-3085 2942 2986 0
3085 -3083 -2942 0
3085 -3083 -2986 0
3085 -2942 -2986 0
-3088 3085 2944 2987 0
-3088 3085 -2944 -2987 0
-3088 -3085 2944 -2987 0
3088 3085 2944 -2987 0
-3088 -3085 -2944 2987 0
3088 3085 -2944 2987 0
3088 -3085 2944 2987 0
3088 -3085 -2944 -2987 0
-3087 3085 2944 0
-3087 3085 2987 0
-3087 2944 2987 0
3087 -3085 -2944 0
3087 -3085 -2987 0
3087 -2944 -2987 0
-3090 3087 2946 2988 0
-3090 3087 -2946 -2988 0
-3090 -3087 2946 -2988 0
3090 3087 2946 -2988 0
-3090 -3087 -2946 2988 0
3090 3087 -2946 2988 0
3090 -3087 2946 2988 0
3090 -3087 -2946 -2988 0
-3089 3087 2946 0
-3089 3087 2988 0
-3089 2946 2988 0
3089 -3087 -2946 0
3089 -3087 -2988 0
3089 -2946 -2988 0
-3092 3089 2948 2989 0
-3092 3089 -2948 -2989 0
-3092 -3089 2948 -2989 0
3092 3089 2948 -2989 0
-3092 -3089 -2948 2989 0
3092 3089 -2948 2989 0
3092 -3089 2948 2989 0
3092 -3089 -2948 -2989 0
-3091 3089 2948 0
-3091 3089 2989 0
-3091 2948 2989 0
3091 -3089 -2948 0
3091 -3089 -2989 0
3091 -2948 -2989 0
-3094 3091 2950 2990 0
-3094 3091 -2950 -2990 0
-3094 -3091 2950 -2990 0
3094 3091 2950 -2990 0
-3094 -3091 -2950 2990 0
3094 3091 -2950 2990 0
3094 -3091 2950 2990 0
3094 -3091 -2950 -2990 0
-3093 3091 2950 0
-3093 3091 2990 0
-3093 2950 2990 0
3093 -3091 -2950 0
3093 -3091 -2990 0
3093 -2950 -2990 0
-3096 3093 2952 2991 0
-3096 3093 -2952 -2991 0
-3096 -3093 2952 -2991 0
3096 3093 2952 -2991 0
-3096 -3093 -2952 2991 0
3096 3093 -2952 2991 0
3096 -3093 2952 2991 0
3096 -3093 -2952 -2991 0
-3095 3093 2952 0
-3095 3093 2991 0
-3095 2952 2991 0
3095 -3093 -2952 0
3095 -3093 -2991 0
3095 -2952 -2991 0
-3098 3095 2954 2992 0
-3098 3095 -2954 -2992 0
-3098 -3095 2954 -2992 0
3098 3095 2954 -2992 0
-3098 -3095 -2954 2992 0
3098 3095 -2954 2992 0
3098 -3095 2954 2992 0
3098 -3095 -2954 -2992 0
-3097 3095 2954 0
-3097 3095 2992 0
-3097 2954 2992 0
3097 -3095 -2954 0
3097 -3095 -2992 0
3097 -2954 -2992 0
-3100 3097 2956 2993 0
-3100 3097 -2956 -2993 0
-3100 -3097 2956 -2993 0
3100 3097 2956 -2993 0
-3100 -3097 -2956 2993 0
3100 3097 -2956 2993 0
3100 -3097 2956 2993 0
3100 -3097 -2956 -2993 0
-3099 3097 2956 0
-3099 3097 2993 0
-3099 2956 2993 0
3099 -3097 -2956 0
3099 -3097 -2993 0
3099 -2956 -2993 0
-3102 3099 2958 2994 0
-3102 3099 -2958 -2994 0
-3102 -3099 2958 -2994 0
3102 3099 2958 -2994 0
-3102 -3099 -2958 2994 0
3102 3099 -2958 2994 0
3102 -3099 2958 2994 0
3102 -3099 -2958 -2994 0
-3101 3099 2958 0
-3101 3099 2994 0
-3101 2958 2994 0
3101 -3099 -2958 0
3101 -3099 -2994 0
3101 -2958 -2994 0
-3104 3101 2960 2995 0
-3104 3101 -2960 -2995 0
-3104 -3101 2960 -2995 0
3104 3101 2960 -2995 0
-3104 -3101 -2960 2995 0
3104 3101 -2960 2995 0
3104 -3101 2960 2995 0
3104 -3101 -2960 -2995 0
-3103 3101 2960 0
-3103 3101 2995 0
-3103 2960 2995 0
3103 -3101 -2960 0
3103 -3101 -2995 0
3103 -2960 -2995 0
-3106 3103 2962 2996 0
-3106 3103 -2962 -2996 0
-3106 -3103 2962 -2996 0
3106 3103 2962 -2996 0
-3106 -3103 -2962 2996 0
3106 3103 -2962 2996 0
3106 -3103 2962 2996 0
3106 -3103 -2962 -2996 0
-3105 3103 2962 0
-3105 3103 2996 0
-3105 2962 2996 0
3105 -3103 -2962 0
3105 -3103 -2996 0
3105 -2962 -2996 0
-3108 3105 2964 2997 0
-3108 3105 -2964 -2997 0
-3108 -3105 2964 -2997 0
3108 3105 2964 -2997 0
-3108 -3105 -2964 2997 0
3108 3105 -2964 2997 0
3108 -3105 2964 2997 0
3108 -3105 -2964 -2997 0
-3107 3105 2964 0
-3107 3105 2997 0
-3107 2964 2997 0
3107 -3105 -2964 0
3107 -3105 -2997 0
3107 -2964 -2997 0
-3110 3107 2966 2998 0
-3110 3107 -2966 -2998 0
-3110 -3107 2966 -2998 0
3110 3107 2966 -2998 0
-3110 -3107 -2966 2998 0
3110 3107 -2966 2998 0
3110 -3107 2966 2998 0
3110 -3107 -2966 -2998 0
-3109 3107 2966 0
-3109 3107 2998 0
-3109 2966 2998 0
3109 -3107 -2966 0
3109 -3107 -2998 0
3109 -2966 -2998 0
-3112 3109 2968 2999 0
-3112 3109 -2968 -2999 0
-3112 -3109 2968 -2999 0
3112 3109 2968 -2999 0
-3112 -3109 -2968 2999 0
3112 3109 -2968 2999 0
3112 -3109 2968 2999 0
3112 -3109 -2968 -2999 0
-3111 3109 2968 0
-3111 3109 2999 0
-3111 2968 2999 0
3111 -3109 -2968 0
3111 -3109 -2999 0
3111 -2968 -2999 0
-3114 3111 2967 3000 0
-3114 3111 -2967 -3000 0
-3114 -3111 2967 -3000 0
3114 3111 2967 -3000 0
-3114 -3111 -2967 3000 0
3114 3111 -2967 3000 0
3114 -3111 2967 3000 0
3114 -3111 -2967 -3000 0
-3113 3111 2967 0
-3113 3111 3000 0
-3113 2967 3000 0
3113 -3111 -2967 0
3113 -3111 -3000 0
3113 -2967 -3000 0
-3115 1 0
-3115 27 0
3115 -1 -27 0
-3116 2 0
-3116 27 0
3116 -2 -27 0
-3117 3 0
-3117 27 0
3117 -3 -27 0
-3118 4 0
-3118 27 0
3118 -4 -27 0
-3119 5 0
-3119 27 0
3119 -5 -27 0
-3120 6 0
-3120 27 0
3120 -6 -27 0
-3121 7 0
-3121 27 0
3121 -7 -27 0
-3122 8 0
-3122 27 0
3122 -8 -27 0
-3123 9 0
-3123 27 0
3123 -9 -27 0
-3124 10 0
-3124 27 0
3124 -10 -27 0
-3125 11 0
-3125 27 0
3125 -11 -27 0
-3126 12 0
-3126 27 0
3126 -12 -27 0
-3127 13 0
-3127 27 0
3127 -13 -27 0
-3128 14 0
-3128 27 0
3128 -14 -27 0
-3129 15 0
-3129 27 0
3129 -15 -27 0
-3130 16 0
-3130 27 0
3130 -16 -27 0
-3131 17 0
-3131 27 0
3131 -17 -27 0
-3132 18 0
-3132 27 0
3132 -18 -27 0
-3133 19 0
-3133 27 0
3133 -19 -27 0
-3134 20 0
-3134 27 0
3134 -20 -27 0
-3135 21 0
-3135 27 0
3135 -21 -27 0
-3136 22 0
-3136 27 0
3136 -22 -27 0
-3137 23 0
-3137 27 0
3137 -23 -27 0
-3138 24 0
-3138 27 0
3138 -24 -27 0
-3139 25 0
-3139 27 0
3139 -25 -27 0
-3140 26 0
-3140 27 0
3140 -26 -27 0
-3141 27 0
3141 -27 0
-3142 28 0
-3142 27 0
3142 -28 -27 0
-3143 29 0
-3143 27 0
3143 -29 -27 0
-3144 30 0
-3144 27 0
3144 -30 -27 0
-3145 31 0
-3145 27 0
3145 -31 -27 0
-3146 32 0
-3146 27 0
3146 -32 -27 0
-3002 3148 0
3002 -3148 0
-3147 0
3004 3147 -3150 0
-3004 -3147 -3150 0
-3004 3147 3150 0
3004 -3147 3150 0
-3149 3147 0
-3149 3004 0
3149 -3147 -3004 0
3006 3149 -3152 0
-3006 -3149 -3152 0
-3006 3149 3152 0
3006 -3149 3152 0
-3151 3149 0
-3151 3006 0
3151 -3149 -3006 0
3008 3151 -3154 0
-3008 -3151 -3154 0
-3008 3151 3154 0
3008 -3151 3154 0
-3153 3151 0
-3153 3008 0
3153 -3151 -3008 0
3010 3153 -3156 0
-3010 -3153 -3156 0
-3010 3153 3156 0
3010 -3153 3156 0
-3155 3153 0
-3155 3010 0
3155 -3153 -3010 0
3012 3155 -3158 0
-3012 -3155 -3158 0
-3012 3155 3158 0
3012 -3155 3158 0
-3157 3155 0
-3157 3012 0
3157 -3155 -3012 0
3014 3157 -3160 0
-3014 -3157 -3160 0
-3014 3157 3160 0
3014 -3157 3160 0
-3159 3157 0
-3159 3014 0
3159 -3157 -3014 0
3016 3159 -3162 0
-3016 -3159 -3162 0
-3016 3159 3162 0
3016 -3159 3162 0
-3161 3159 0
-3161 3016 0
3161 -3159 -3016 0
3018 3161 -3164 0
-3018 -3161 -3164 0
-3018 3161 3164 0
3018 -3161 3164 0
-3163 3161 0
-3163 3018 0
3163 -3161 -3018 0
3020 3163 -3166 0
-3020 -3163 -3166 0
-3020 3163 3166 0
3020 -3163 3166 0
-3165 3163 0
-3165 3020 0
3165 -3163 -3020 0
3022 3165 -3168 0
-3022 -3165 -3168 0
-3022 3165 3168 0
3022 -3165 3168 0
-3167 3165 0
-3167 3022 0
3167 -3165 -3022 0
3024 3167 -3170 0
-3024 -3167 -3170 0
-3024 3167 3170 0
3024 -3167 3170 0
-3169 3167 0
-3169 3024 0
3169 -3167 -3024 0
3026 3169 -3172 0
-3026 -3169 -3172 0
-3026 3169 3172 0
3026 -3169 3172 0
-3171 3169 0
-3171 3026 0
3171 -3169 -3026 0
3028 3171 -3174 0
-3028 -3171 -3174 0
-3028 3171 3174 0
3028 -3171 3174 0
-3173 3171 0
-3173 3028 0
3173 -3171 -3028 0
3030 3173 -3176 0
-3030 -3173 -3176 0
-3030 3173 3176 0
3030 -3173 3176 0
-3175 3173 0
-3175 3030 0
3175 -3173 -3030 0
3032 3175 -3178 0
-3032 -3175 -3178 0
-3032 3175 3178 0
3032 -3175 3178 0
-3177 3175 0
-3177 3032 0
3177 -3175 -3032 0
3034 3177 -3180 0
-3034 -3177 -3180 0
-3034 3177 3180 0
3034 -3177 3180 0
-3179 3177 0
-3179 3034 0
3179 -3177 -3034 0
3036 3179 -3182 0
-3036 -3179 -3182 0
-3036 3179 3182 0
3036 -3179 3182 0
-3181 3179 0
-3181 3036 0
3181 -3179 -3036 0
3038 3181 -3184 0
-3038 -3181 -3184 0
-3038 3181 3184 0
3038 -3181 3184 0
-3183 3181 0
-3183 3038 0
3183 -3181 -3038 0
3040 3183 -3186 0
-3040 -3183 -3186 0
-3040 3183 3186 0
3040 -3183 3186 0
-3185 3183 0
-3185 3040 0
3185 -3183 -3040 0
3042 3185 -3188 0
-3042 -3185 -3188 0
-3042 3185 3188 0
3042 -3185 3188 0
-3187 3185 0
-3187 3042 0
3187 -3185 -3042 0
3044 3187 -3190 0
-3044 -3187 -3190 0
-3044 3187 3190 0
3044 -3187 3190 0
-3189 3187 0
-3189 3044 0
3189 -3187 -3044 0
3046 3189 -3192 0
-3046 -3189 -3192 0
-3046 3189 3192 0
3046 -3189 3192 0
-3191 3189 0
-3191 3046 0
3191 -3189 -3046 0
3048 3191 -3194 0
-3048 -3191 -3194 0
-3048 3191 3194 0
3048 -3191 3194 0
-3193 3191 0
-3193 3048 0
3193 -3191 -3048 0
3050 3193 -3196 0
-3050 -3193 -3196 0
-3050 3193 3196 0
3050 -3193 3196 0
-3195 3193 0
-3195 3050 0
3195 -3193 -3050 0
3052 3195 -3198 0
-3052 -3195 -3198 0
-3052 3195 3198 0
3052 -3195 3198 0
-3197 3195 0
-3197 3052 0
3197 -3195 -3052 0
-3200 3197 3054 3115 0
-3200 3197 -3054 -3115 0
-3200 -3197 3054 -3115 0
3200 3197 3054 -3115 0
-3200 -3197 -3054 3115 0
3200 3197 -3054 3115 0
3200 -3197 3054 3115 0
3200 -3197 -3054 -3115 0
-3199 3197 3054 0
-3199 3197 3115 0
-3199 3054 3115 0
3199 -3197 -3054 0
3199 -3197 -3115 0
3199 -3054 -3115 0
-3202 3199 3056 3116 0
-3202 3199 -3056 -3116 0
-3202 -3199 3056 -3116 0
3202 3199 3056 -3116 0
-3202 -3199 -3056 3116 0
3202 3199 -3056 3116 0
3202 -3199 3056 3116 0
3202 -3199 -3056 -3116 0
-3201 3199 3056 0
-3201 3199 3116 0
-3201 3056 3116 0
3201 -3199 -3056 0
3201 -3199 -3116 0
3201 -3056 -3116 0
-3204 3201 3058 3117 0
-3204 3201 -3058 -3117 0
-3204 -3201 3058 -3117 0
3204 3201 3058 -3117 0
-3204 -3201 -3058 3117 0
3204 3201 -3058 3117 0
3204 -3201 3058 3117 0
3204 -3201 -3058 -3117 0
-3203 3201 3058 0
-3203 3201 3117 0
-3203 3058 3117 0
3203 -3201 -3058 0
3203 -3201 -3117 0
3203 -3058 -3117 0
-3206 3203 3060 3118 0
-3206 3203 -3060 -3118 0
-3206 -3203 3060 -3118 0
3206 3203 3060 -3118 0
-3206 -3203 -3060 3118 0
3206 3203 -3060 3118 0
3206 -3203 3060 3118 0
3206 -3203 -3060 -3118 0
-3205 3203 3060 0
-3205 3203 3118 0
-3205 3060 3118 0
3205 -3203 -3060 0
3205 -3203 -3118 0
3205 -3060 -3118 0
-3208 3205 3062 3119 0
-3208 3205 -3062 -3119 0
-3208 -3205 3062 -3119 0
3208 3205 3062 -3119 0
-3208 -3205 -3062 3119 0
3208 3205 -3062 3119 0
3208 -3205 3062 3119 0
3208 -3205 -3062 -3119 0
-3207 3205 3062 0
-3207 3205 3119 0
-3207 3062 3119 0
3207 -3205 -3062 0
3207 -3205 -3119 0
3207 -3062 -3119 0
-3210 3207 3064 3120 0
-3210 3207 -3064 -3120 0
-3210 -3207 3064 -3120 0
3210 3207 3064 -3120 0
-3210 -3207 -3064 3120 0
3210 3207 -3064 3120 0
3210 -3207 3064 3120 0
3210 -3207 -3064 -3120 0
-3209 3207 3064 0
-3209 3207 3120 0
-3209 3064 3120 0
3209 -3207 -3064 0
3209 -3207 -3120 0
3209 -3064 -3120 0
-3212 3209 3066 3121 0
-3212 3209 -3066 -3121 0
-3212 -3209 3066 -3121 0
3212 3209 3066 -3121 0
-3212 -3209 -3066 3121 0
3212 3209 -3066 3121 0
3212 -3209 3066 3121 0
3212 -3209 -3066 -3121 0
-3211 3209 3066 0
-3211 3209 3121 0
-3211 3066 3121 0
3211 -3209 -3066 0
3211 -3209 -3121 0
3211 -3066 -3121 0
-3214 3211 3068 3122 0
-3214 3211 -3068 -3122 0
-3214 -3211 3068 -3122 0
3214 3211 3068 -3122 0
-3214 -3211 -3068 3122 0
3214 3211 -3068 3122 0
3214 -3211 3068 3122 0
3214 -3211 -3068 -3122 0
-3213 3211 3068 0
-3213 3211 3122 0
-3213 3068 3122 0
3213 -3211 -3068 0
3213 -3211 -3122 0
3213 -3068 -3122 0
-3216 3213 3070 3123 0
-3216 3213 -3070 -3123 0
-3216 -3213 3070 -3123 0
3216 3213 3070 -3123 0
-3216 -3213 -3070 3123 0
3216 3213 -3070 3123 0
3216 -3213 3070 3123 0
3216 -3213 -3070 -3123 0
-3215 3213 3070 0
-3215 3213 3123 0
-3215 3070 3123 0
3215 -3213 -3070 0
3215 -3213 -3123 0
3215 -3070 -3123 0
-3218 3215 3072 3124 0
-3218 3215 -3072 -3124 0
-3218 -3215 3072 -3124 0
3218 3215 3072 -3124 0
-3218 -3215 -3072 3124 0
3218 3215 -3072 3124 0
3218 -3215 3072 3124 0
3218 -3215 -3072 -3124 0
-3217 3215 3072 0
-3217 3215 3124 0
-3217 3072 3124 0
3217 -3215 -3072 0
3217 -3215 -3124 0
3217 -3072 -3124 0
-3220 3217 3074 3125 0
-3220 3217 -3074 -3125 0
-3220 -3217 3074 -3125 0
3220 3217 3074 -3125 0
-3220 -3217 -3074 3125 0
3220 3217 -3074 3125 0
3220 -3217 3074 3125 0
3220 -3217 -3074 -3125 0
-3219 3217 3074 0
-3219 3217 3125 0
-3219 3074 3125 0
3219 -3217 -3074 0
3219 -3217 -3125 0
3219 -3074 -3125 0
-3222 3219 3076 3126 0
-3222 3219 -3076 -3126 0
-3222 -3219 3076 -3126 0
3222 3219 3076 -3126 0
-3222 -3219 -3076 3126 0
3222 3219 -3076 3126 0
3222 -3219 3076 3126 0
3222 -3219 -3076 -3126 0
-3221 3219 3076 0
-3221 3219 3126 0
-3221 3076 3126 0
3221 -3219 -3076 0
3221 -3219 -3126 0
3221 -3076 -3126 0
-3224 3221 3078 3127 0
-3224 3221 -3078 -3127 0
-3224 -3221 3078 -3127 0
3224 3221 3078 -3127 0
-3224 -3221 -3078 3127 0
3224 3221 -3078 3127 0
3224 -3221 3078 3127 0
3224 -3221 -3078 -3127 0
-3223 3221 3078 0
-3223 3221 3127 0
-3223 3078 3127 0
3223 -3221 -3078 0
3223 -3221 -3127 0
3223 -3078 -3127 0
-3226 3223 3080 3128 0
-3226 3223 -3080 -3128 0
-3226 -3223 3080 -3128 0
3226 3223 3080 -3128 0
-3226 -3223 -3080 3128 0
3226 3223 -3080 3128 0
3226 -3223 3080 3128 0
3226 -3223 -3080 -3128 0
-3225 3223 3080 0
-3225 3223 3128 0
-3225 3080 3128 0
3225 -3223 -3080 0
3225 -3223 -3128 0
3225 -3080 -3128 0
-3228 3225 3082 3129 0
-3228 3225 -3082 -3129 0
-3228 -3225 3082 -3129 0
3228 3225 3082 -3129 0
-3228 -3225 -3082 3129 0
3228 3225 -3082 3129 0
3228 -3225 3082 3129 0
3228 -3225 -3082 -3129 0
-3227 3225 3082 0
-3227 3225 3129 0
-3227 3082 3129 0
3227 -3225 -3082 0
3227 -3225 -3129 0
3227 -3082 -3129 0
-3230 3227 3084 3130 0
-3230 3227 -3084 -3130 0
-3230 -3227 3084 -3130 0
3230 3227 3084 -3130 0
-3230 -3227 -3084 3130 0
3230 3227 -3084 3130 0
3230 -3227 3084 3130 0
3230 -3227 -3084 -3130 0
-3229 3227 3084 0
-3229 3227 3130 0
-3229 3084 3130 0
3229 -3227 -3084 0
3229 -3227 -3130 0
3229 -3084 -3130 0
-3232 3229 3086 3131 0
-3232 3229 -3086 -3131 0
-3232 -3229 3086 -3131 0
3232 3229 3086 -3131 0
-3232 -3229 -3086 3131 0
3232 3229 -3086 3131 0
3232 -3229 3086 3131 0
3232 -3229 -3086 -3131 0
-3231 3229 3086 0
-3231 3229 3131 0
-3231 3086 3131 0
3231 -3229 -3086 0
3231 -3229 -3131 0
3231 -3086 -3131 0
-3234 3231 3088 3132 0
-3234 3231 -3088 -3132 0
-3234 -3231 3088 -3132 0
3234 3231 3088 -3132 0
-3234 -3231 -3088 3132 0
3234 3231 -3088 3132 0
3234 -3231 3088 3132 0
3234 -3231 -3088 -3132 0
-3233 3231 3088 0
-3233 3231 3132 0
-3233 3088 3132 0
3233 -3231 -3088 0
3233 -3231 -3132 0
3233 -3088 -3132 0
-3236 3233 3090 3133 0
-3236 3233 -3090 -3133 0
-3236 -3233 3090 -3133 0
3236 3233 3090 -3133 0
-3236 -3233 -3090 3133 0
3236 3233 -3090 3133 0
3236 -3233 3090 3133 0
3236 -3233 -3090 -3133 0
-3235 3233 3090 0
-3235 3233 3133 0
-3235 3090 3133 0
3235 -3233 -3090 0
3235 -3233 -3133 0
3235 -3090 -3133 0
-3238 3235 3092 3134 0
-3238 3235 -3092 -3134 0
-3238 -3235 3092 -3134 0
3238 3235 3092 -3134 0
-3238 -3235 -3092 3134 0
3238 3235 -3092 3134 0
3238 -3235 3092 3134 0
3238 -3235 -3092 -3134 0
-3237 3235 3092 0
-3237 3235 3134 0
-3237 3092 3134 0
3237 -3235 -3092 0
3237 -3235 -3134 0
3237 -3092 -3134 0
-3240 3237 3094 3135 0
-3240 3237 -3094 -3135 0
-3240 -3237 3094 -3135 0
3240 3237 3094 -3135 0
-3240 -3237 -3094 3135 0
3240 3237 -3094 3135 0
3240 -3237 3094 3135 0
3240 -3237 -3094 -3135 0
-3239 3237 3094 0
-3239 3237 3135 0
-3239 3094 3135 0
3239 -3237 -3094 0
3239 -3237 -3135 0
3239 -3094 -3135 0
-3242 3239 3096 3136 0
-3242 3239 -3096 -3136 0
-3242 -3239 3096 -3136 0
3242 3239 3096 -3136 0
-3242 -3239 -3096 3136 0
3242 3239 -3096 3136 0
3242 -3239 3096 3136 0
3242 -3239 -3096 -3136 0
-3241 3239 3096 0
-3241 3239 3136 0
-3241 3096 3136 0
3241 -3239 -3096 0
3241 -3239 -3136 0
3241 -3096 -3136 0
-3244 3241 3098 3137 0
-3244 3241 -3098 -3137 0
-3244 -3241 3098 -3137 0
3244 3241 3098 -3137 0
-3244 -3241 -3098 3137 0
3244 3241 -3098 3137 0
3244 -3241 3098 3137 0
3244 -3241 -3098 -3137 0
-3243 3241 3098 0
-3243 3241 3137 0
-3243 3098 3137 0
3243 -3241 -3098 0
3243 -3241 -3137 0
3243 -3098 -3137 0
-3246 3243 3100 3138 0
-3246 3243 -3100 -3138 0
-3246 -3243 3100 -3138 0
3246 3243 3100 -3138 0
-3246 -3243 -3100 3138 0
3246 3243 -3100 3138 0
3246 -3243 3100 3138 0
3246 -3243 -3100 -3138 0
-3245 3243 3100 0
-3245 3243 3138 0
-3245 3100 3138 0
3245 -3243 -3100 0
3245 -3243 -3138 0
3245 -3100 -3138 0
-3248 3245 3102 3139 0
-3248 3245 -3102 -3139 0
-3248 -3245 3102 -3139 0
3248 3245 3102 -3139 0
-3248 -3245 -3102 3139 0
3248 3245 -3102 3139 0
3248 -3245 3102 3139 0
3248 -3245 -3102 -3139 0
-3247 3245 3102 0
-3247 3245 3139 0
-3247 3102 3139 0
3247 -3245 -3102 0
3247 -3245 -3139 0
3247 -3102 -3139 0
-3250 3247 3104 3140 0
-3250 3247 -3104 -3140 0
-3250 -3247 3104 -3140 0
3250 3247 3104 -3140 0
-3250 -3247 -3104 3140 0
3250 3247 -3104 3140 0
3250 -3247 3104 3140 0
3250 -3247 -3104 -3140 0
-3249 3247 3104 0
-3249 3247 3140 0
-3249 3104 3140 0
3249 -3247 -3104 0
3249 -3247 -3140 0
3249 -3104 -3140 0
-3252 3249 3106 3141 0
-3252 3249 -3106 -3141 0
-3252 -3249 3106 -3141 0
3252 3249 3106 -3141 0
-3252 -3249 -3106 3141 0
3252 3249 -3106 3141 0
3252 -3249 3106 3141 0
3252 -3249 -3106 -3141 0
-3251 3249 3106 0
-3251 3249 3141 0
-3251 3106 3141 0
3251 -3249 -3106 0
3251 -3249 -3141 0
3251 -3106 -3141 0
-3254 3251 3108 3142 0
-3254 3251 -3108 -3142 0
-3254 -3251 3108 -3142 0
3254 3251 3108 -3142 0
-3254 -3251 -3108 3142 0
3254 3251 -3108 3142 0
3254 -3251 3108 3142 0
3254 -3251 -3108 -3142 0
-3253 3251 3108 0
-3253 3251 3142 0
-3253 3108 3142 0
3253 -3251 -3108 0
3253 -3251 -3142 0
3253 -3108 -3142 0
-3256 3253 3110 3143 0
-3256 3253 -3110 -3143 0
-3256 -3253 3110 -3143 0
3256 3253 3110 -3143 0
-3256 -3253 -3110 3143 0
3256 3253 -3110 3143 0
3256 -3253 3110 3143 0
3256 -3253 -3110 -3143 0
-3255 3253 3110 0
-3255 3253 3143 0
-3255 3110 3143 0
3255 -3253 -3110 0
3255 -3253 -3143 0
3255 -3110 -3143 0
-3258 3255 3112 3144 0
-3258 3255 -3112 -3144 0
-3258 -3255 3112 -3144 0
3258 3255 3112 -3144 0
-3258 -3255 -3112 3144 0
3258 3255 -3112 3144 0
3258 -3255 3112 3144 0
3258 -3255 -3112 -3144 0
-3257 3255 3112 0
-3257 3255 3144 0
-3257 3112 3144 0
3257 -3255 -3112 0
3257 -3255 -3144 0
3257 -3112 -3144 0
-3260 3257 3114 3145 0
-3260 3257 -3114 -3145 0
-3260 -3257 3114 -3145 0
3260 3257 3114 -3145 0
-3260 -3257 -3114 3145 0
3260 3257 -3114 3145 0
3260 -3257 3114 3145 0
3260 -3257 -3114 -3145 0
-3259 3257 3114 0
-3259 3257 3145 0
-3259 3114 3145 0
3259 -3257 -3114 0
3259 -3257 -3145 0
3259 -3114 -3145 0
-3262 3259 3113 3146 0
-3262 3259 -3113 -3146 0
-3262 -3259 3113 -3146 0
3262 3259 3113 -3146 0
-3262 -3259 -3113 3146 0
3262 3259 -3113 3146 0
3262 -3259 3113 3146 0
3262 -3259 -3113 -3146 0
-3261 3259 3113 0
-3261 3259 3146 0
-3261 3113 3146 0
3261 -3259 -3113 0
3261 -3259 -3146 0
3261 -3113 -3146 0
-3263 1 0
-3263 28 0
3263 -1 -28 0
-3264 2 0
-3264 28 0
3264 -2 -28 0
-3265 3 0
-3265 28 0
3265 -3 -28 0
-3266 4 0
-3266 28 0
3266 -4 -28 0
-3267 5 0
-3267 28 0
3267 -5 -28 0
-3268 6 0
-3268 28 0
3268 -6 -28 0
-3269 7 0
-3269 28 0
3269 -7 -28 0
-3270 8 0
-3270 28 0
3270 -8 -28 0
-3271 9 0
-3271 28 0
3271 -9 -28 0
-3272 10 0
-3272 28 0
3272 -10 -28 0
-3273 11 0
-3273 28 0
3273 -11 -28 0
-3274 12 0
-3274 28 0
3274 -12 -28 0
-3275 13 0
-3275 28 0
3275 -13 -28 0
-3276 14 0
-3276 28 0
3276 -14 -28 0
-3277 15 0
-3277 28 0
3277 -15 -28 0
-3278 16 0
-3278 28 0
3278 -16 -28 0
-3279 17 0
-3279 28 0
3279 -17 -28 0
-3280 18 0
-3280 28 0
3280 -18 -28 0
-3281 19 0
-3281 28 0
3281 -19 -28 0
-3282 20 0
-3282 28 0
3282 -20 -28 0
-3283 21 0
-3283 28 0
3283 -21 -28 0
-3284 22 0
-3284 28 0
3284 -22 -28 0
-3285 23 0
-3285 28 0
3285 -23 -28 0
-3286 24 0
-3286 28 0
3286 -24 -28 0
-3287 25 0
-3287 28 0
3287 -25 -28 0
-3288 26 0
-3288 28 0
3288 -26 -28 0
-3289 27 0
-3289 28 0
3289 -27 -28 0
-3290 28 0
3290 -28 0
-3291 29 0
-3291 28 0
3291 -29 -28 0
-3292 30 0
-3292 28 0
3292 -30 -28 0
-3293 31 0
-3293 28 0
3293 -31 -28 0
-3294 32 0
-3294 28 0
3294 -32 -28 0
-3148 3296 0
3148 -3296 0
-3295 0
3150 3295 -3298 0
-3150 -3295 -3298 0
-3150 3295 3298 0
3150 -3295 3298 0
-3297 3295 0
-3297 3150 0
3297 -3295 -3150 0
3152 3297 -3300 0
-3152 -3297 -3300 0
-3152 3297 3300 0
3152 -3297 3300 0
-3299 3297 0
-3299 3152 0
3299 -3297 -3152 0
3154 3299 -3302 0
-3154 -3299 -3302 0
-3154 3299 3302 0
3154 -3299 3302 0
-3301 3299 0
-3301 3154 0
3301 -3299 -3154 0
3156 3301 -3304 0
-3156 -3301 -3304 0
-3156 3301 3304 0
3156 -3301 3304 0
-3303 3301 0
-3303 3156 0
3303 -3301 -3156 0
3158 3303 -3306 0
-3158 -3303 -3306 0
-3158 3303 3306 0
3158 -3303 3306 0
-3305 3303 0
-3305 3158 0
3305 -3303 -3158 0
3160 3305 -3308 0
-3160 -3305 -3308 0
-3160 3305 3308 0
3160 -3305 3308 0
-3307 3305 0
-3307 3160 0
3307 -3305 -3160 0
3162 3307 -3310 0
-3162 -3307 -3310 0
-3162 3307 3310 0
3162 -3307 3310 0
-3309 3307 0
-3309 3162 0
3309 -3307 -3162 0
3164 3309 -3312 0
-3164 -3309 -3312 0
-3164 3309 3312 0
3164 -3309 3312 0
-3311 3309 0
-3311 3164 0
3311 -3309 -3164 0
3166 3311 -3314 0
-3166 -3311 -3314 0
-3166 3311 3314 0
3166 -3311 3314 0
-3313 3311 0
-3313 3166 0
3313 -3311 -3166 0
3168 3313 -3316 0
-3168 -3313 -3316 0
-3168 3313 3316 0
3168 -3313 3316 0
-3315 3313 0
-3315 3168 0
3315 -3313 -3168 0
3170 3315 -3318 0
-3170 -3315 -3318 0
-3170 3315 3318 0
3170 -3315 3318 0
-3317 3315 0
-3317 3170 0
3317 -3315 -3170 0
3172 3317 -3320 0
-3172 -3317 -3320 0
-3172 3317 3320 0
3172 -3317 3320 0
-3319 3317 0
-3319 3172 0
3319 -3317 -3172 0
3174 3319 -3322 0
-3174 -3319 -3322 0
-3174 3319 3322 0
3174 -3319 3322 0
-3321 3319 0
-3321 3174 0
3321 -3319 -3174 0
3176 3321 -3324 0
-3176 -3321 -3324 0
-3176 3321 3324 0
3176 -3321 3324 0
-3323 3321 0
-3323 3176 0
3323 -3321 -3176 0
3178 3323 -3326 0
-3178 -3323 -3326 0
-3178 3323 3326 0
3178 -3323 3326 0
-3325 3323 0
-3325 3178 0
3325 -3323 -3178 0
3180 3325 -3328 0
-3180 -3325 -3328 0
-3180 3325 3328 0
3180 -3325 3328 0
-3327 3325 0
-3327 3180 0
3327 -3325 -3180 0
3182 3327 -3330 0
-3182 -3327 -3330 0
-3182 3327 3330 0
3182 -3327 3330 0
-3329 3327 0
-3329 3182 0
3329 -3327 -3182 0
3184 3329 -3332 0
-3184 -3329 -3332 0
-3184 3329 3332 0
3184 -3329 3332 0
-3331 3329 0
-3331 3184 0
3331 -3329 -3184 0
3186 3331 -3334 0
-3186 -3331 -3334 0
-3186 3331 3334 0
3186 -3331 3334 0
-3333 3331 0
-3333 3186 0
3333 -3331 -3186 0
3188 3333 -3336 0
-3188 -3333 -3336 0
-3188 3333 3336 0
3188 -3333 3336 0
-3335 3333 0
-3335 3188 0
3335 -3333 -3188 0
3190 3335 -3338 0
-3190 -3335 -3338 0
-3190 3335 3338 0
3190 -3335 3338 0
-3337 3335 0
-3337 3190 0
3337 -3335 -3190 0
3192 3337 -3340 0
-3192 -3337 -3340 0
-3192 3337 3340 0
3192 -3337 3340 0
-3339 3337 0
-3339 3192 0
3339 -3337 -3192 0
3194 3339 -3342 0
-3194 -3339 -3342 0
-3194 3339 3342 0
3194 -3339 3342 0
-3341 3339 0
-3341 3194 0
3341 -3339 -3194 0
3196 3341 -3344 0
-3196 -3341 -3344 0
-3196 3341 3344 0
3196 -3341 3344 0
-3343 3341 0
-3343 3196 0
3343 -3341 -3196 0
3198 3343 -3346 0
-3198 -3343 -3346 0
-3198 3343 3346 0
3198 -3343 3346 0
-3345 3343 0
-3345 3198 0
3345 -3343 -3198 0
3200 3345 -3348 0
-3200 -3345 -3348 0
-3200 3345 3348 0
3200 -3345 3348 0
-3347 3345 0
-3347 3200 0
3347 -3345 -3200 0
-3350 3347 3202 3263 0
-3350 3347 -3202 -3263 0
-3350 -3347 3202 -3263 0
3350 3347 3202 -3263 0
-3350 -3347 -3202 3263 0
3350 3347 -3202 3263 0
3350 -3347 3202 3263 0
3350 -3347 -3202 -3263 0
-3349 3347 3202 0
-3349 3347 3263 0
-3349 3202 3263 0
3349 -3347 -3202 0
3349 -3347 -3263 0
3349 -3202 -3263 0
-3352 3349 3204 3264 0
-3352 3349 -3204 -3264 0
-3352 -3349 3204 -3264 0
3352 3349 3204 -3264 0
-3352 -3349 -3204 3264 0
3352 3349 -3204 3264 0
3352 -3349 3204 3264 0
3352 -3349 -3204 -3264 0
-3351 3349 3204 0
-3351 3349 3264 0
-3351 3204 3264 0
3351 -3349 -3204 0
3351 -3349 -3264 0
3351 -3204 -3264 0
-3354 3351 3206 3265 0
-3354 3351 -3206 -3265 0
-3354 -3351 3206 -3265 0
3354 3351 3206 -3265 0
-3354 -3351 -3206 3265 0
3354 3351 -3206 3265 0
3354 -3351 3206 3265 0
3354 -3351 -3206 -3265 0
-3353 3351 3206 0
-3353 3351 3265 0
-3353 3206 3265 0
3353 -3351 -3206 0
3353 -3351 -3265 0
3353 -3206 -3265 0
-3356 3353 3208 3266 0
-3356 3353 -3208 -3266 0
-3356 -3353 3208 -3266 0
3356 3353 3208 -3266 0
-3356 -3353 -3208 3266 0
3356 3353 -3208 3266 0
3356 -3353 3208 3266 0
3356 -3353 -3208 -3266 0
-3355 3353 3208 0
-3355 3353 3266 0
-3355 3208 3266 0
3355 -3353 -3208 0
3355 -3353 -3266 0
3355 -3208 -3266 0
-3358 3355 3210 3267 0
-3358 3355 -3210 -3267 0
-3358 -3355 3210 -3267 0
3358 3355 3210 -3267 0
-3358 -3355 -3210 3267 0
3358 3355 -3210 3267 0
3358 -3355 3210 3267 0
3358 -3355 -3210 -3267 0
-3357 3355 3210 0
-3357 3355 3267 0
-3357 3210 3267 0
3357 -3355 -3210 0
3357 -3355 -3267 0
3357 -3210 -3267 0
-3360 3357 3212 3268 0
-3360 3357 -3212 -3268 0
-3360 -3357 3212 -3268 0
3360 3357 3212 -3268 0
-3360 -3357 -3212 3268 0
3360 3357 -3212 3268 0
3360 -3357 3212 3268 0
3360 -3357 -3212 -3268 0
-3359 3357 3212 0
-3359 3357 3268 0
-3359 3212 3268 0
3359 -3357 -3212 0
3359 -3357 -3268 0
3359 -3212 -3268 0
-3362 3359 3214 3269 0
-3362 3359 -3214 -3269 0
-3362 -3359 3214 -3269 0
3362 3359 3214 -3269 0
-3362 -3359 -3214 3269 0
3362 3359 -3214 3269 0
3362 -3359 3214 3269 0
3362 -3359 -3214 -3269 0
-3361 3359 3214 0
-3361 3359 3269 0
-3361 3214 3269 0
3361 -3359 -3214 0
3361 -3359 -3269 0
3361 -3214 -3269 0
-3364 3361 3216 3270 0
-3364 3361 -3216 -3270 0
-3364 -3361 3216 -3270 0
3364 3361 3216 -3270 0
-3364 -3361 -3216 3270 0
3364 3361 -3216 3270 0
3364 -3361 3216 3270 0
3364 -3361 -3216 -3270 0
-3363 3361 3216 0
-3363 3361 3270 0
-3363 3216 3270 0
3363 -3361 -3216 0
3363 -3361 -3270 0
3363 -3216 -3270 0
-3366 3363 3218 3271 0
-3366 3363 -3218 -3271 0
-3366 -3363 3218 -3271 0
3366 3363 3218 -3271 0
-3366 -3363 -3218 3271 0
3366 3363 -3218 3271 0
3366 -3363 3218 3271 0
3366 -3363 -3218 -3271 0
-3365 3363 3218 0
-3365 3363 3271 0
-3365 3218 3271 0
3365 -3363 -3218 0
3365 -3363 -3271 0
3365 -3218 -3271 0
-3368 3365 3220 3272 0
-3368 3365 -3220 -3272 0
-3368 -3365 3220 -3272 0
3368 3365 3220 -3272 0
-3368 -3365 -3220 3272 0
3368 3365 -3220 3272 0
3368 -3365 3220 3272 0
3368 -3365 -3220 -3272 0
-3367 3365 3220 0
-3367 3365 3272 0
-3367 3220 3272 0
3367 -3365 -3220 0
3367 -3365 -3272 0
3367 -3220 -3272 0
-3370 3367 3222 3273 0
-3370 3367 -3222 -3273 0
-3370 -3367 3222 -3273 0
3370 3367 3222 -3273 0
-3370 -3367 -3222 3273 0
3370 3367 -3222 3273 0
3370 -3367 3222 3273 0
3370 -3367 -3222 -3273 0
-3369 3367 3222 0
-3369 3367 3273 0
-3369 3222 3273 0
3369 -3367 -3222 0
3369 -3367 -3273 0
3369 -3222 -3273 0
-3372 3369 3224 3274 0
-3372 3369 -3224 -3274 0
-3372 -3369 3224 -3274 0
3372 3369 3224 -3274 0
-3372 -3369 -3224 3274 0
3372 3369 -3224 3274 0
3372 -3369 3224 3274 0
3372 -3369 -3224 -3274 0
-3371 3369 3224 0
-3371 3369 3274 0
-3371 3224 3274 0
3371 -3369 -3224 0
3371 -3369 -3274 0
3371 -3224 -3274 0
-3374 3371 3226 3275 0
-3374 3371 -3226 -3275 0
-3374 -3371 3226 -3275 0
3374 3371 3226 -3275 0
-3374 -3371 -3226 3275 0
3374 3371 -3226 3275 0
3374 -3371 3226 3275 0
3374 -3371 -3226 -3275 0
-3373 3371 3226 0
-3373 3371 3275 0
-3373 3226 3275 0
3373 -3371 -3226 0
3373 -3371 -3275 0
3373 -3226 -3275 0
-3376 3373 3228 3276 0
-3376 3373 -3228 -3276 0
-3376 -3373 3228 -3276 0
3376 3373 3228 -3276 0
-3376 -3373 -3228 3276 0
3376 3373 -3228 3276 0
3376 -3373 3228 3276 0
3376 -3373 -3228 -3276 0
-3375 3373 3228 0
-3375 3373 3276 0
-3375 3228 3276 0
3375 -3373 -3228 0
3375 -3373 -3276 0
3375 -3228 -3276 0
-3378 3375 3230 3277 0
-3378 3375 -3230 -3277 0
-3378 -3375 3230 -3277 0
3378 3375 3230 -3277 0
-3378 -3375 -3230 3277 0
3378 3375 -3230 3277 0
3378 -3375 3230 3277 0
3378 -3375 -3230 -3277 0
-3377 3375 3230 0
-3377 3375 3277 0
-3377 3230 3277 0
3377 -3375 -3230 0
3377 -3375 -3277 0
3377 -3230 -3277 0
-3380 3377 3232 3278 0
-3380 3377 -3232 -3278 0
-3380 -3377 3232 -3278 0
3380 3377 3232 -3278 0
-3380 -3377 -3232 3278 0
3380 3377 -3232 3278 0
3380 -3377 3232 3278 0
3380 -3377 -3232 -3278 0
-3379 3377 3232 0
-3379 3377 3278 0
-3379 3232 3278 0
3379 -3377 -3232 0
3379 -3377 -3278 0
3379 -3232 -3278 0
-3382 3379 3234 3279 0
-3382 3379 -3234 -3279 0
-3382 -3379 3234 -3279 0
3382 3379 3234 -3279 0
-3382 -3379 -3234 3279 0
3382 3379 -3234 3279 0
3382 -3379 3234 3279 0
3382 -3379 -3234 -3279 0
-3381 3379 3234 0
-3381 3379 3279 0
-3381 3234 3279 0
3381 -3379 -3234 0
3381 -3379 -3279 0
3381 -3234 -3279 0
-3384 3381 3236 3280 0
-3384 3381 -3236 -3280 0
-3384 -3381 3236 -3280 0
3384 3381 3236 -3280 0
-3384 -3381 -3236 3280 0
3384 3381 -3236 3280 0
3384 -3381 3236 3280 0
3384 -3381 -3236 -3280 0
-3383 3381 3236 0
-3383 3381 3280 0
-3383 3236 3280 0
3383 -3381 -3236 0
3383 -3381 -3280 0
3383 -3236 -3280 0
-3386 3383 3238 3281 0
-3386 3383 -3238 -3281 0
-3386 -3383 3238 -3281 0
3386 3383 3238 -3281 0
-3386 -3383 -3238 3281 0
3386 3383 -3238 3281 0
3386 -3383 3238 3281 0
3386 -3383 -3238 -3281 0
-3385 3383 3238 0
-3385 3383 3281 0
-3385 3238 3281 0
3385 -3383 -3238 0
3385 -3383 -3281 0
3385 -3238 -3281 0
-3388 3385 3240 3282 0
-3388 3385 -3240 -3282 0
-3388 -3385 3240 -3282 0
3388 3385 3240 -3282 0
-3388 -3385 -3240 3282 0
3388 3385 -3240 3282 0
3388 -3385 3240 3282 0
3388 -3385 -3240 -3282 0
-3387 3385 3240 0
-3387 3385 3282 0
-3387 3240 3282 0
3387 -3385 -3240 0
3387 -3385 -3282 0
3387 -3240 -3282 0
-3390 3387 3242 3283 0
-3390 3387 -3242 -3283 0
-3390 -3387 3242 -3283 0
3390 3387 3242 -3283 0
-3390 -3387 -3242 3283 0
3390 3387 -3242 3283 0
3390 -3387 3242 3283 0
3390 -3387 -3242 -3283 0
-3389 3387 3242 0
-3389 3387 3283 0
-3389 3242 3283 0
3389 -3387 -3242 0
3389 -3387 -3283 0
3389 -3242 -3283 0
-3392 3389 3244 3284 0
-3392 3389 -3244 -3284 0
-3392 -3389 3244 -3284 0
3392 3389 3244 -3284 0
-3392 -3389 -3244 3284 0
3392 3389 -3244 3284 0
3392 -3389 3244 3284 0
3392 -3389 -3244 -3284 0
-3391 3389 3244 0
-3391 3389 3284 0
-3391 3244 3284 0
3391 -3389 -3244 0
3391 -3389 -3284 0
3391 -3244 -3284 0
-3394 3391 3246 3285 0
-3394 3391 -3246 -3285 0
-3394 -3391 3246 -3285 0
3394 3391 3246 -3285 0
-3394 -3391 -3246 3285 0
3394 3391 -3246 3285 0
3394 -3391 3246 3285 0
3394 -3391 -3246 -3285 0
-3393 3391 3246 0
-3393 3391 3285 0
-3393 3246 3285 0
3393 -3391 -3246 0
3393 -3391 -3285 0
3393 -3246 -3285 0
-3396 3393 3248 3286 0
-3396 3393 -3248 -3286 0
-3396 -3393 3248 -3286 0
3396 3393 3248 -3286 0
-3396 -3393 -3248 3286 0
3396 3393 -3248 3286 0
3396 -3393 3248 3286 0
3396 -3393 -3248 -3286 0
-3395 3393 3248 0
-3395 3393 3286 0
-3395 3248 3286 0
3395 -3393 -3248 0
3395 -3393 -3286 0
3395 -3248 -3286 0
-3398 3395 3250 3287 0
-3398 3395 -3250 -3287 0
-3398 -3395 3250 -3287 0
3398 3395 3250 -3287 0
-3398 -3395 -3250 3287 0
3398 3395 -3250 3287 0
3398 -3395 3250 3287 0
3398 -3395 -3250 -3287 0
-3397 3395 3250 0
-3397 3395 3287 0
-3397 3250 3287 0
3397 -3395 -3250 0
3397 -3395 -3287 0
3397 -3250 -3287 0
-3400 3397 3252 3288 0
-3400 3397 -3252 -3288 0
-3400 -3397 3252 -3288 0
3400 3397 3252 -3288 0
-3400 -3397 -3252 3288 0
3400 3397 -3252 3288 0
3400 -3397 3252 3288 0
3400 -3397 -3252 -3288 0
-3399 3397 3252 0
-3399 3397 3288 0
-3399 3252 3288 0
3399 -3397 -3252 0
3399 -3397 -3288 0
3399 -3252 -3288 0
-3402 3399 3254 3289 0
-3402 3399 -3254 -3289 0
-3402 -3399 3254 -3289 0
3402 3399 3254 -3289 0
-3402 -3399 -3254 3289 0
3402 3399 -3254 3289 0
3402 -3399 3254 3289 0
3402 -3399 -3254 -3289 0
-3401 3399 3254 0
-3401 3399 3289 0
-3401 3254 3289 0
3401 -3399 -3254 0
3401 -3399 -3289 0
3401 -3254 -3289 0
-3404 3401 3256 3290 0
-3404 3401 -3256 -3290 0
-3404 -3401 3256 -3290 0
3404 3401 3256 -3290 0
-3404 -3401 -3256 3290 0
3404 3401 -3256 3290 0
3404 -3401 3256 3290 0
3404 -3401 -3256 -3290 0
-3403 3401 3256 0
-3403 3401 3290 0
-3403 3256 3290 0
3403 -3401 -3256 0
3403 -3401 -3290 0
3403 -3256 -3290 0
-3406 3403 3258 3291 0
-3406 3403 -3258 -3291 0
-3406 -3403 3258 -3291 0
3406 3403 3258 -3291 0
-3406 -3403 -3258 3291 0
3406 3403 -3258 3291 0
3406 -3403 3258 3291 0
3406 -3403 -3258 -3291 0
-3405 3403 3258 0
-3405 3403 3291 0
-3405 3258 3291 0
3405 -3403 -3258 0
3405 -3403 -3291 0
3405 -3258 -3291 0
-3408 3405 3260 3292 0
-3408 3405 -3260 -3292 0
-3408 -3405 3260 -3292 0
3408 3405 3260 -3292 0
-3408 -3405 -3260 3292 0
3408 3405 -3260 3292 0
3408 -3405 3260 3292 0
3408 -3405 -3260 -3292 0
-3407 3405 3260 0
-3407 3405 3292 0
-3407 3260 3292 0
3407 -3405 -3260 0
3407 -3405 -3292 0
3407 -3260 -3292 0
-3410 3407 3262 3293 0
-3410 3407 -3262 -3293 0
-3410 -3407 3262 -3293 0
3410 3407 3262 -3293 0
-3410 -3407 -3262 3293 0
3410 3407 -3262 3293 0
3410 -3407 3262 3293 0
3410 -3407 -3262 -3293 0
-3409 3407 3262 0
-3409 3407 3293 0
-3409 3262 3293 0
3409 -3407 -3262 0
3409 -3407 -3293 0
3409 -3262 -3293 0
-3412 3409 3261 3294 0
-3412 3409 -3261 -3294 0
-3412 -3409 3261 -3294 0
3412 3409 3261 -3294 0
-3412 -3409 -3261 3294 0
3412 3409 -3261 3294 0
3412 -3409 3261 3294 0
3412 -3409 -3261 -3294 0
-3411 3409 3261 0
-3411 3409 3294 0
-3411 3261 3294 0
3411 -3409 -3261 0
3411 -3409 -3294 0
3411 -3261 -3294 0
-3413 1 0
-3413 29 0
3413 -1 -29 0
-3414 2 0
-3414 29 0
3414 -2 -29 0
-3415 3 0
-3415 29 0
3415 -3 -29 0
-3416 4 0
-3416 29 0
3416 -4 -29 0
-3417 5 0
-3417 29 0
3417 -5 -29 0
-3418 6 0
-3418 29 0
3418 -6 -29 0
-3419 7 0
-3419 29 0
3419 -7 -29 0
-3420 8 0
-3420 29 0
3420 -8 -29 0
-3421 9 0
-3421 29 0
3421 -9 -29 0
-3422 10 0
-3422 29 0
3422 -10 -29 0
-3423 11 0
-3423 29 0
3423 -11 -29 0
-3424 12 0
-3424 29 0
3424 -12 -29 0
-3425 13 0
-3425 29 0
3425 -13 -29 0
-3426 14 0
-3426 29 0
3426 -14 -29 0
-3427 15 0
-3427 29 0
3427 -15 -29 0
-3428 16 0
-3428 29 0
3428 -16 -29 0
-3429 17 0
-3429 29 0
3429 -17 -29 0
-3430 18 0
-3430 29 0
3430 -18 -29 0
-3431 19 0
-3431 29 0
3431 -19 -29 0
-3432 20 0
-3432 29 0
3432 -20 -29 0
-3433 21 0
-3433 29 0
3433 -21 -29 0
-3434 22 0
-3434 29 0
3434 -22 -29 0
-3435 23 0
-3435 29 0
3435 -23 -29 0
-3436 24 0
-3436 29 0
3436 -24 -29 0
-3437 25 0
-3437 29 0
3437 -25 -29 0
-3438 26 0
-3438 29 0
3438 -26 -29 0
-3439 27 0
-3439 29 0
3439 -27 -29 0
-3440 28 0
-3440 29 0
3440 -28 -29 0
-3441 29 0
3441 -29 0
-3442 30 0
-3442 29 0
3442 -30 -29 0
-3443 31 0
-3443 29 0
3443 -31 -29 0
-3444 32 0
-3444 29 0
3444 -32 -29 0
-3296 3446 0
3296 -3446 0
-3445 0
3298 3445 -3448 0
-3298 -3445 -3448 0
-3298 3445 3448 0
3298 -3445 3448 0
-3447 3445 0
-3447 3298 0
3447 -3445 -3298 0
3300 3447 -3450 0
-3300 -3447 -3450 0
-3300 3447 3450 0
3300 -3447 3450 0
-3449 3447 0
-3449 3300 0
3449 -3447 -3300 0
3302 3449 -3452 0
-3302 -3449 -3452 0
-3302 3449 3452 0
3302 -3449 3452 0
-3451 3449 0
-3451 3302 0
3451 -3449 -3302 0
3304 3451 -3454 0
-3304 -3451 -3454 0
-3304 3451 3454 0
3304 -3451 3454 0
-3453 3451 0
-3453 3304 0
3453 -3451 -3304 0
3306 3453 -3456 0
-3306 -3453 -3456 0
-3306 3453 3456 0
3306 -3453 3456 0
-3455 3453 0
-3455 3306 0
3455 -3453 -3306 0
3308 3455 -3458 0
-3308 -3455 -3458 0
-3308 3455 3458 0
3308 -3455 3458 0
-3457 3455 0
-3457 3308 0
3457 -3455 -3308 0
3310 3457 -3460 0
-3310 -3457 -3460 0
-3310 3457 3460 0
3310 -3457 3460 0
-3459 3457 0
-3459 3310 0
3459 -3457 -3310 0
3312 3459 -3462 0
-3312 -3459 -3462 0
-3312 3459 3462 0
3312 -3459 3462 0
-3461 3459 0
-3461 3312 0
3461 -3459 -3312 0
3314 3461 -3464 0
-3314 -3461 -3464 0
-3314 3461 3464 0
3314 -3461 3464 0
-3463 3461 0
-3463 3314 0
3463 -3461 -3314 0
3316 3463 -3466 0
-3316 -3463 -3466 0
-3316 3463 3466 0
3316 -3463 3466 0
-3465 3463 0
-3465 3316 0
3465 -3463 -3316 0
3318 3465 -3468 0
-3318 -3465 -3468 0
-3318 3465 3468 0
3318 -3465 3468 0
-3467 3465 0
-3467 3318 0
3467 -3465 -3318 0
3320 3467 -3470 0
-3320 -3467 -3470 0
-3320 3467 3470 0
3320 -3467 3470 0
-3469 3467 0
-3469 3320 0
3469 -3467 -3320 0
3322 3469 -3472 0
-3322 -3469 -3472 0
-3322 3469 3472 0
3322 -3469 3472 0
-3471 3469 0
-3471 3322 0
3471 -3469 -3322 0
3324 3471 -3474 0
-3324 -3471 -3474 0
-3324 3471 3474 0
3324 -3471 3474 0
-3473 3471 0
-3473 3324 0
3473 -3471 -3324 0
3326 3473 -3476 0
-3326 -3473 -3476 0
-3326 3473 3476 0
3326 -3473 3476 0
-3475 3473 0
-3475 3326 0
3475 -3473 -3326 0
3328 3475 -3478 0
-3328 -3475 -3478 0
-3328 3475 3478 0
3328 -3475 3478 0
-3477 3475 0
-3477 3328 0
3477 -3475 -3328 0
3330 3477 -3480 0
-3330 -3477 -3480 0
-3330 3477 3480 0
3330 -3477 3480 0
-3479 3477 0
-3479 3330 0
3479 -3477 -3330 0
3332 3479 -3482 0
-3332 -3479 -3482 0
-3332 3479 3482 0
3332 -3479 3482 0
-3481 3479 0
-3481 3332 0
3481 -3479 -3332 0
3334 3481 -3484 0
-3334 -3481 -3484 0
-3334 3481 3484 0
3334 -3481 3484 0
-3483 3481 0
-3483 3334 0
3483 -3481 -3334 0
3336 3483 -3486 0
-3336 -3483 -3486 0
-3336 3483 3486 0
3336 -3483 3486 0
-3485 3483 0
-3485 3336 0
3485 -3483 -3336 0
3338 3485 -3488 0
-3338 -3485 -3488 0
-3338 3485 3488 0
3338 -3485 3488 0
-3487 3485 0
-3487 3338 0
3487 -3485 -3338 0
3340 3487 -3490 0
-3340 -3487 -3490 0
-3340 3487 3490 0
3340 -3487 3490 0
-3489 3487 0
-3489 3340 0
3489 -3487 -3340 0
3342 3489 -3492 0
-3342 -3489 -3492 0
-3342 3489 3492 0
3342 -3489 3492 0
-3491 3489 0
-3491 3342 0
3491 -3489 -3342 0
3344 3491 -3494 0
-3344 -3491 -3494 0
-3344 3491 3494 0
3344 -3491 3494 0
-3493 3491 0
-3493 3344 0
3493 -3491 -3344 0
3346 3493 -3496 0
-3346 -3493 -3496 0
-3346 3493 3496 0
3346 -3493 3496 0
-3495 3493 0
-3495 3346 0
3495 -3493 -3346 0
3348 3495 -3498 0
-3348 -3495 -3498 0
-3348 3495 3498 0
3348 -3495 3498 0
-3497 3495 0
-3497 3348 0
3497 -3495 -3348 0
3350 3497 -3500 0
-3350 -3497 -3500 0
-3350 3497 3500 0
3350 -3497 3500 0
-3499 3497 0
-3499 3350 0
3499 -3497 -3350 0
-3502 3499 3352 3413 0
-3502 3499 -3352 -3413 0
-3502 -3499 3352 -3413 0
3502 3499 3352 -3413 0
-3502 -3499 -3352 3413 0
3502 3499 -3352 3413 0
3502 -3499 3352 3413 0
3502 -3499 -3352 -3413 0
-3501 3499 3352 0
-3501 3499 3413 0
-3501 3352 3413 0
3501 -3499 -3352 0
3501 -3499 -3413 0
3501 -3352 -3413 0
-3504 3501 3354 3414 0
-3504 3501 -3354 -3414 0
-3504 -3501 3354 -3414 0
3504 3501 3354 -3414 0
-3504 -3501 -3354 3414 0
3504 3501 -3354 3414 0
3504 -3501 3354 3414 0
3504 -3501 -3354 -3414 0
-3503 3501 3354 0
-3503 3501 3414 0
-3503 3354 3414 0
3503 -3501 -3354 0
3503 -3501 -3414 0
3503 -3354 -3414 0
-3506 3503 3356 3415 0
-3506 3503 -3356 -3415 0
-3506 -3503 3356 -3415 0
3506 3503 3356 -3415 0
-3506 -3503 -3356 3415 0
3506 3503 -3356 3415 0
3506 -3503 3356 3415 0
3506 -3503 -3356 -3415 0
-3505 3503 3356 0
-3505 3503 3415 0
-3505 3356 3415 0
3505 -3503 -3356 0
3505 -3503 -3415 0
3505 -3356 -3415 0
-3508 3505 3358 3416 0
-3508 3505 -3358 -3416 0
-3508 -3505 3358 -3416 0
3508 3505 3358 -3416 0
-3508 -3505 -3358 3416 0
3508 3505 -3358 3416 0
3508 -3505 3358 3416 0
3508 -3505 -3358 -3416 0
-3507 3505 3358 0
-3507 3505 3416 0
-3507 3358 3416 0
3507 -3505 -3358 0
3507 -3505 -3416 0
3507 -3358 -3416 0
-3510 3507 3360 3417 0
-3510 3507 -3360 -3417 0
-3510 -3507 3360 -3417 0
3510 3507 3360 -3417 0
-3510 -3507 -3360 3417 0
3510 3507 -3360 3417 0
3510 -3507 3360 3417 0
3510 -3507 -3360 -3417 0
-3509 3507 3360 0
-3509 3507 3417 0
-3509 3360 3417 0
3509 -3507 -3360 0
3509 -3507 -3417 0
3509 -3360 -3417 0
-3512 3509 3362 3418 0
-3512 3509 -3362 -3418 0
-3512 -3509 3362 -3418 0
3512 3509 3362 -3418 0
-3512 -3509 -3362 3418 0
3512 3509 -3362 3418 0
3512 -3509 3362 3418 0
3512 -3509 -3362 -3418 0
-3511 3509 3362 0
-3511 3509 3418 0
-3511 3362 3418 0
3511 -3509 -3362 0
3511 -3509 -3418 0
3511 -3362 -3418 0
-3514 3511 3364 3419 0
-3514 3511 -3364 -3419 0
-3514 -3511 3364 -3419 0
3514 3511 3364 -3419 0
-3514 -3511 -3364 3419 0
3514 3511 -3364 3419 0
3514 -3511 3364 3419 0
3514 -3511 -3364 -3419 0
-3513 3511 3364 0
-3513 3511 3419 0
-3513 3364 3419 0
3513 -3511 -3364 0
3513 -3511 -3419 0
3513 -3364 -3419 0
-3516 3513 3366 3420 0
-3516 3513 -3366 -3420 0
-3516 -3513 3366 -3420 0
3516 3513 3366 -3420 0
-3516 -3513 -3366 3420 0
3516 3513 -3366 3420 0
3516 -3513 3366 3420 0
3516 -3513 -3366 -3420 0
-3515 3513 3366 0
-3515 3513 3420 0
-3515 3366 3420 0
3515 -3513 -3366 0
3515 -3513 -3420 0
3515 -3366 -3420 0
-3518 3515 3368 3421 0
-3518 3515 -3368 -3421 0
-3518 -3515 3368 -3421 0
3518 3515 3368 -3421 0
-3518 -3515 -3368 3421 0
3518 3515 -3368 3421 0
3518 -3515 3368 3421 0
3518 -3515 -3368 -3421 0
-3517 3515 3368 0
-3517 3515 3421 0
-3517 3368 3421 0
3517 -3515 -3368 0
3517 -3515 -3421 0
3517 -3368 -3421 0
-3520 3517 3370 3422 0
-3520 3517 -3370 -3422 0
-3520 -3517 3370 -3422 0
3520 3517 3370 -3422 0
-3520 -3517 -3370 3422 0
3520 3517 -3370 3422 0
3520 -3517 3370 3422 0
3520 -3517 -3370 -3422 0
-3519 3517 3370 0
-3519 3517 3422 0
-3519 3370 3422 0
3519 -3517 -3370 0
3519 -3517 -3422 0
3519 -3370 -3422 0
-3522 3519 3372 3423 0
-3522 3519 -3372 -3423 0
-3522 -3519 3372 -3423 0
3522 3519 3372 -3423 0
-3522 -3519 -3372 3423 0
3522 3519 -3372 3423 0
3522 -3519 3372 3423 0
3522 -3519 -3372 -3423 0
-3521 3519 3372 0
-3521 3519 3423 0
-3521 3372 3423 0
3521 -3519 -3372 0
3521 -3519 -3423 0
3521 -3372 -3423 0
-3524 3521 3374 3424 0
-3524 3521 -3374 -3424 0
-3524 -3521 3374 -3424 0
3524 3521 3374 -3424 0
-3524 -3521 -3374 3424 0
3524 3521 -3374 3424 0
3524 -3521 3374 3424 0
3524 -3521 -3374 -3424 0
-3523 3521 3374 0
-3523 3521 3424 0
-3523 3374 3424 0
3523 -3521 -3374 0
3523 -3521 -3424 0
3523 -3374 -3424 0
-3526 3523 3376 3425 0
-3526 3523 -3376 -3425 0
-3526 -3523 3376 -3425 0
3526 3523 3376 -3425 0
-3526 -3523 -3376 3425 0
3526 3523 -3376 3425 0
3526 -3523 3376 3425 0
3526 -3523 -3376 -3425 0
-3525 3523 3376 0
-3525 3523 3425 0
-3525 3376 3425 0
3525 -3523 -3376 0
3525 -3523 -3425 0
3525 -3376 -3425 0
-3528 3525 3378 3426 0
-3528 3525 -3378 -3426 0
-3528 -3525 3378 -3426 0
3528 3525 3378 -3426 0
-3528 -3525 -3378 3426 0
3528 3525 -3378 3426 0
3528 -3525 3378 3426 0
3528 -3525 -3378 -3426 0
-3527 3525 3378 0
-3527 3525 3426 0
-3527 3378 3426 0
3527 -3525 -3378 0
3527 -3525 -3426 0
3527 -3378 -3426 0
-3530 3527 3380 3427 0
-3530 3527 -3380 -3427 0
-3530 -3527 3380 -3427 0
3530 3527 3380 -3427 0
-3530 -3527 -3380 3427 0
3530 3527 -3380 3427 0
3530 -3527 3380 3427 0
3530 -3527 -3380 -3427 0
-3529 3527 3380 0
-3529 3527 3427 0
-3529 3380 3427 0
3529 -3527 -3380 0
3529 -3527 -3427 0
3529 -3380 -3427 0
-3532 3529 3382 3428 0
-3532 3529 -3382 -3428 0
-3532 -3529 3382 -3428 0
3532 3529 3382 -3428 0
-3532 -3529 -3382 3428 0
3532 3529 -3382 3428 0
3532 -3529 3382 3428 0
3532 -3529 -3382 -3428 0
-3531 3529 3382 0
-3531 3529 3428 0
-3531 3382 3428 0
3531 -3529 -3382 0
3531 -3529 -3428 0
3531 -3382 -3428 0
-3534 3531 3384 3429 0
-3534 3531 -3384 -3429 0
-3534 -3531 3384 -3429 0
3534 3531 3384 -3429 0
-3534 -3531 -3384 3429 0
3534 3531 -3384 3429 0
3534 -3531 3384 3429 0
3534 -3531 -3384 -3429 0
-3533 3531 3384 0
-3533 3531 3429 0
-3533 3384 3429 0
3533 -3531 -3384 0
3533 -3531 -3429 0
3533 -3384 -3429 0
-3536 3533 3386 3430 0
-3536 3533 -3386 -3430 0
-3536 -3533 3386 -3430 0
3536 3533 3386 -3430 0
-3536 -3533 -3386 3430 0
3536 3533 -3386 3430 0
3536 -3533 3386 3430 0
3536 -3533 -3386 -3430 0
-3535 3533 3386 0
-3535 3533 3430 0
-3535 3386 3430 0
3535 -3533 -3386 0
3535 -3533 -3430 0
3535 -3386 -3430 0
-3538 3535 3388 3431 0
-3538 3535 -3388 -3431 0
-3538 -3535 3388 -3431 0
3538 3535 3388 -3431 0
-3538 -3535 -3388 3431 0
3538 3535 -3388 3431 0
3538 -3535 3388 3431 0
3538 -3535 -3388 -3431 0
-3537 3535 3388 0
-3537 3535 3431 0
-3537 3388 3431 0
3537 -3535 -3388 0
3537 -3535 -3431 0
3537 -3388 -3431 0
-3540 3537 3390 3432 0
-3540 3537 -3390 -3432 0
-3540 -3537 3390 -3432 0
3540 3537 3390 -3432 0
-3540 -3537 -3390 3432 0
3540 3537 -3390 3432 0
3540 -3537 3390 3432 0
3540 -3537 -3390 -3432 0
-3539 3537 3390 0
-3539 3537 3432 0
-3539 3390 3432 0
3539 -3537 -3390 0
3539 -3537 -3432 0
3539 -3390 -3432 0
-3542 3539 3392 3433 0
-3542 3539 -3392 -3433 0
-3542 -3539 3392 -3433 0
3542 3539 3392 -3433 0
-3542 -3539 -3392 3433 0
3542 3539 -3392 3433 0
3542 -3539 3392 3433 0
3542 -3539 -3392 -3433 0
-3541 3539 3392 0
-3541 3539 3433 0
-3541 3392 3433 0
3541 -3539 -3392 0
3541 -3539 -3433 0
3541 -3392 -3433 0
-3544 3541 3394 3434 0
-3544 3541 -3394 -3434 0
-3544 -3541 3394 -3434 0
3544 3541 3394 -3434 0
-3544 -3541 -3394 3434 0
3544 3541 -3394 3434 0
3544 -3541 3394 3434 0
3544 -3541 -3394 -3434 0
-3543 3541 3394 0
-3543 3541 3434 0
-3543 3394 3434 0
3543 -3541 -3394 0
3543 -3541 -3434 0
3543 -3394 -3434 0
-3546 3543 3396 3435 0
-3546 3543 -3396 -3435 0
-3546 -3543 3396 -3435 0
3546 3543 3396 -3435 0
-3546 -3543 -3396 3435 0
3546 3543 -3396 3435 0
3546 -3543 3396 3435 0
3546 -3543 -3396 -3435 0
-3545 3543 3396 0
-3545 3543 3435 0
-3545 3396 3435 0
3545 -3543 -3396 0
3545 -3543 -3435 0
3545 -3396 -3435 0
-3548 3545 3398 3436 0
-3548 3545 -3398 -3436 0
-3548 -3545 3398 -3436 0
3548 3545 3398 -3436 0
-3548 -3545 -3398 3436 0
3548 3545 -3398 3436 0
3548 -3545 3398 3436 0
3548 -3545 -3398 -3436 0
-3547 3545 3398 0
-3547 3545 3436 0
-3547 3398 3436 0
3547 -3545 -3398 0
3547 -3545 -3436 0
3547 -3398 -3436 0
-3550 3547 3400 3437 0
-3550 3547 -3400 -3437 0
-3550 -3547 3400 -3437 0
3550 3547 3400 -3437 0
-3550 -3547 -3400 3437 0
3550 3547 -3400 3437 0
3550 -3547 3400 3437 0
3550 -3547 -3400 -3437 0
-3549 3547 3400 0
-3549 3547 3437 0
-3549 3400 3437 0
3549 -3547 -3400 0
3549 -3547 -3437 0
3549 -3400 -3437 0
-3552 3549 3402 3438 0
-3552 3549 -3402 -3438 0
-3552 -3549 3402 -3438 0
3552 3549 3402 -3438 0
-3552 -3549 -3402 3438 0
3552 3549 -3402 3438 0
3552 -3549 3402 3438 0
3552 -3549 -3402 -3438 0
-3551 3549 3402 0
-3551 3549 3438 0
-3551 3402 3438 0
3551 -3549 -3402 0
3551 -3549 -3438 0
3551 -3402 -3438 0
-3554 3551 3404 3439 0
-3554 3551 -3404 -3439 0
-3554 -3551 3404 -3439 0
3554 3551 3404 -3439 0
-3554 -3551 -3404 3439 0
3554 3551 -3404 3439 0
3554 -3551 3404 3439 0
3554 -3551 -3404 -3439 0
-3553 3551 3404 0
-3553 3551 3439 0
-3553 3404 3439 0
3553 -3551 -3404 0
3553 -3551 -3439 0
3553 -3404 -3439 0
-3556 3553 3406 3440 0
-3556 3553 -3406 -3440 0
-3556 -3553 3406 -3440 0
3556 3553 3406 -3440 0
-3556 -3553 -3406 3440 0
3556 3553 -3406 3440 0
3556 -3553 3406 3440 0
3556 -3553 -3406 -3440 0
-3555 3553 3406 0
-3555 3553 3440 0
-3555 3406 3440 0
3555 -3553 -3406 0
3555 -3553 -3440 0
3555 -3406 -3440 0
-3558 3555 3408 3441 0
-3558 3555 -3408 -3441 0
-3558 -3555 3408 -3441 0
3558 3555 3408 -3441 0
-3558 -3555 -3408 3441 0
3558 3555 -3408 3441 0
3558 -3555 3408 3441 0
3558 -3555 -3408 -3441 0
-3557 3555 3408 0
-3557 3555 3441 0
-3557 3408 3441 0
3557 -3555 -3408 0
3557 -3555 -3441 0
3557 -3408 -3441 0
-3560 3557 3410 3442 0
-3560 3557 -3410 -3442 0
-3560 -3557 3410 -3442 0
3560 3557 3410 -3442 0
-3560 -3557 -3410 3442 0
3560 3557 -3410 3442 0
3560 -3557 3410 3442 0
3560 -3557 -3410 -3442 0
-3559 3557 3410 0
-3559 3557 3442 0
-3559 3410 3442 0
3559 -3557 -3410 0
3559 -3557 -3442 0
3559 -3410 -3442 0
-3562 3559 3412 3443 0
-3562 3559 -3412 -3443 0
-3562 -3559 3412 -3443 0
3562 3559 3412 -3443 0
-3562 -3559 -3412 3443 0
3562 3559 -3412 3443 0
3562 -3559 3412 3443 0
3562 -3559 -3412 -3443 0
-3561 3559 3412 0
-3561 3559 3443 0
-3561 3412 3443 0
3561 -3559 -3412 0
3561 -3559 -3443 0
3561 -3412 -3443 0
-3564 3561 3411 3444 0
-3564 3561 -3411 -3444 0
-3564 -3561 3411 -3444 0
3564 3561 3411 -3444 0
-3564 -3561 -3411 3444 0
3564 3561 -3411 3444 0
3564 -3561 3411 3444 0
3564 -3561 -3411 -3444 0
-3563 3561 3411 0
-3563 3561 3444 0
-3563 3411 3444 0
3563 -3561 -3411 0
3563 -3561 -3444 0
3563 -3411 -3444 0
-3565 1 0
-3565 30 0
3565 -1 -30 0
-3566 2 0
-3566 30 0
3566 -2 -30 0
-3567 3 0
-3567 30 0
3567 -3 -30 0
-3568 4 0
-3568 30 0
3568 -4 -30 0
-3569 5 0
-3569 30 0
3569 -5 -30 0
-3570 6 0
-3570 30 0
3570 -6 -30 0
-3571 7 0
-3571 30 0
3571 -7 -30 0
-3572 8 0
-3572 30 0
3572 -8 -30 0
-3573 9 0
-3573 30 0
3573 -9 -30 0
-3574 10 0
-3574 30 0
3574 -10 -30 0
-3575 11 0
-3575 30 0
3575 -11 -30 0
-3576 12 0
-3576 30 0
3576 -12 -30 0
-3577 13 0
-3577 30 0
3577 -13 -30 0
-3578 14 0
-3578 30 0
3578 -14 -30 0
-3579 15 0
-3579 30 0
3579 -15 -30 0
-3580 16 0
-3580 30 0
3580 -16 -30 0
-3581 17 0
-3581 30 0
3581 -17 -30 0
-3582 18 0
-3582 30 0
3582 -18 -30 0
-3583 19 0
-3583 30 0
3583 -19 -30 0
-3584 20 0
-3584 30 0
3584 -20 -30 0
-3585 21 0
-3585 30 0
3585 -21 -30 0
-3586 22 0
-3586 30 0
3586 -22 -30 0
-3587 23 0
-3587 30 0
3587 -23 -30 0
-3588 24 0
-3588 30 0
3588 -24 -30 0
-3589 25 0
-3589 30 0
3589 -25 -30 0
-3590 26 0
-3590 30 0
3590 -26 -30 0
-3591 27 0
-3591 30 0
3591 -27 -30 0
-3592 28 0
-3592 30 0
3592 -28 -30 0
-3593 29 0
-3593 30 0
3593 -29 -30 0
-3594 30 0
3594 -30 0
-3595 31 0
-3595 30 0
3595 -31 -30 0
-3596 32 0
-3596 30 0
3596 -32 -30 0
-3446 3598 0
3446 -3598 0
-3597 0
3448 3597 -3600 0
-3448 -3597 -3600 0
-3448 3597 3600 0
3448 -3597 3600 0
-3599 3597 0
-3599 3448 0
3599 -3597 -3448 0
3450 3599 -3602 0
-3450 -3599 -3602 0
-3450 3599 3602 0
3450 -3599 3602 0
-3601 3599 0
-3601 3450 0
3601 -3599 -3450 0
3452 3601 -3604 0
-3452 -3601 -3604 0
-3452 3601 3604 0
3452 -3601 3604 0
-3603 3601 0
-3603 3452 0
3603 -3601 -3452 0
3454 3603 -3606 0
-3454 -3603 -3606 0
-3454 3603 3606 0
3454 -3603 3606 0
-3605 3603 0
-3605 3454 0
3605 -3603 -3454 0
3456 3605 -3608 0
-3456 -3605 -3608 0
-3456 3605 3608 0
3456 -3605 3608 0
-3607 3605 0
-3607 3456 0
3607 -3605 -3456 0
3458 3607 -3610 0
-3458 -3607 -3610 0
-3458 3607 3610 0
3458 -3607 3610 0
-3609 3607 0
-3609 3458 0
3609 -3607 -3458 0
3460 3609 -3612 0
-3460 -3609 -3612 0
-3460 3609 3612 0
3460 -3609 3612 0
-3611 3609 0
-3611 3460 0
3611 -3609 -3460 0
3462 3611 -3614 0
-3462 -3611 -3614 0
-3462 3611 3614 0
3462 -3611 3614 0
-3613 3611 0
-3613 3462 0
3613 -3611 -3462 0
3464 3613 -3616 0
-3464 -3613 -3616 0
-3464 3613 3616 0
3464 -3613 3616 0
-3615 3613 0
-3615 3464 0
3615 -3613 -3464 0
3466 3615 -3618 0
-3466 -3615 -3618 0
-3466 3615 3618 0
3466 -3615 3618 0
-3617 3615 0
-3617 3466 0
3617 -3615 -3466 0
3468 3617 -3620 0
-3468 -3617 -3620 0
-3468 3617 3620 0
3468 -3617 3620 0
-3619 3617 0
-3619 3468 0
3619 -3617 -3468 0
3470 3619 -3622 0
-3470 -3619 -3622 0
-3470 3619 3622 0
3470 -3619 3622 0
-3621 3619 0
-3621 3470 0
3621 -3619 -3470 0
3472 3621 -3624 0
-3472 -3621 -3624 0
-3472 3621 3624 0
3472 -3621 3624 0
-3623 3621 0
-3623 3472 0
3623 -3621 -3472 0
3474 3623 -3626 0
-3474 -3623 -3626 0
-3474 3623 3626 0
3474 -3623 3626 0
-3625 3623 0
-3625 3474 0
3625 -3623 -3474 0
3476 3625 -3628 0
-3476 -3625 -3628 0
-3476 3625 3628 0
3476 -3625 3628 0
-3627 3625 0
-3627 3476 0
3627 -3625 -3476 0
3478 3627 -3630 0
-3478 -3627 -3630 0
-3478 3627 3630 0
3478 -3627 3630 0
-3629 3627 0
-3629 3478 0
3629 -3627 -3478 0
3480 3629 -3632 0
-3480 -3629 -3632 0
-3480 3629 3632 0
3480 -3629 3632 0
-3631 3629 0
-3631 3480 0
3631 -3629 -3480 0
3482 3631 -3634 0
-3482 -3631 -3634 0
-3482 3631 3634 0
3482 -3631 3634 0
-3633 3631 0
-3633 3482 0
3633 -3631 -3482 0
3484 3633 -3636 0
-3484 -3633 -3636 0
-3484 3633 3636 0
3484 -3633 3636 0
-3635 3633 0
-3635 3484 0
3635 -3633 -3484 0
3486 3635 -3638 0
-3486 -3635 -3638 0
-3486 3635 3638 0
3486 -3635 3638 0
-3637 3635 0
-3637 3486 0
3637 -3635 -3486 0
3488 3637 -3640 0
-3488 -3637 -3640 0
-3488 3637 3640 0
3488 -3637 3640 0
-3639 3637 0
-3639 3488 0
3639 -3637 -3488 0
3490 3639 -3642 0
-3490 -3639 -3642 0
-3490 3639 3642 0
3490 -3639 3642 0
-3641 3639 0
-3641 3490 0
3641 -3639 -3490 0
3492 3641 -3644 0
-3492 -3641 -3644 0
-3492 3641 3644 0
3492 -3641 3644 0
-3643 3641 0
-3643 3492 0
3643 -3641 -3492 0
3494 3643 -3646 0
-3494 -3643 -3646 0
-3494 3643 3646 0
3494 -3643 3646 0
-3645 3643 0
-3645 3494 0
3645 -3643 -3494 0
3496 3645 -3648 0
-3496 -3645 -3648 0
-3496 3645 3648 0
3496 -3645 3648 0
-3647 3645 0
-3647 3496 0
3647 -3645 -3496 0
3498 3647 -3650 0
-3498 -3647 -3650 0
-3498 3647 3650 0
3498 -3647 3650 0
-3649 3647 0
-3649 3498 0
3649 -3647 -3498 0
3500 3649 -3652 0
-3500 -3649 -3652 0
-3500 3649 3652 0
3500 -3649 3652 0
-3651 3649 0
-3651 3500 0
3651 -3649 -3500 0
3502 3651 -3654 0
-3502 -3651 -3654 0
-3502 3651 3654 0
3502 -3651 3654 0
-3653 3651 0
-3653 3502 0
3653 -3651 -3502 0
-3656 3653 3504 3565 0
-3656 3653 -3504 -3565 0
-3656 -3653 3504 -3565 0
3656 3653 3504 -3565 0
-3656 -3653 -3504 3565 0
3656 3653 -3504 3565 0
3656 -3653 3504 3565 0
3656 -3653 -3504 -3565 0
-3655 3653 3504 0
-3655 3653 3565 0
-3655 3504 3565 0
3655 -3653 -3504 0
3655 -3653 -3565 0
3655 -3504 -3565 0
-3658 3655 3506 3566 0
-3658 3655 -3506 -3566 0
-3658 -3655 3506 -3566 0
3658 3655 3506 -3566 0
-3658 -3655 -3506 3566 0
3658 3655 -3506 3566 0
3658 -3655 3506 3566 0
3658 -3655 -3506 -3566 0
-3657 3655 3506 0
-3657 3655 3566 0
-3657 3506 3566 0
3657 -3655 -3506 0
3657 -3655 -3566 0
3657 -3506 -3566 0
-3660 3657 3508 3567 0
-3660 3657 -3508 -3567 0
-3660 -3657 3508 -3567 0
3660 3657 3508 -3567 0
-3660 -3657 -3508 3567 0
3660 3657 -3508 3567 0
3660 -3657 3508 3567 0
3660 -3657 -3508 -3567 0
-3659 3657 3508 0
-3659 3657 3567 0
-3659 3508 3567 0
3659 -3657 -3508 0
3659 -3657 -3567 0
3659 -3508 -3567 0
-3662 3659 3510 3568 0
-3662 3659 -3510 -3568 0
-3662 -3659 3510 -3568 0
3662 3659 3510 -3568 0
-3662 -3659 -3510 3568 0
3662 3659 -3510 3568 0
3662 -3659 3510 3568 0
3662 -3659 -3510 -3568 0
-3661 3659 3510 0
-3661 3659 3568 0
-3661 3510 3568 0
3661 -3659 -3510 0
3661 -3659 -3568 0
3661 -3510 -3568 0
-3664 3661 3512 3569 0
-3664 3661 -3512 -3569 0
-3664 -3661 3512 -3569 0
3664 3661 3512 -3569 0
-3664 -3661 -3512 3569 0
3664 3661 -3512 3569 0
3664 -3661 3512 3569 0
3664 -3661 -3512 -3569 0
-3663 3661 3512 0
-3663 3661 3569 0
-3663 3512 3569 0
3663 -3661 -3512 0
3663 -3661 -3569 0
3663 -3512 -3569 0
-3666 3663 3514 3570 0
-3666 3663 -3514 -3570 0
-3666 -3663 3514 -3570 0
3666 3663 3514 -3570 0
-3666 -3663 -3514 3570 0
3666 3663 -3514 3570 0
3666 -3663 3514 3570 0
3666 -3663 -3514 -3570 0
-3665 3663 3514 0
-3665 3663 3570 0
-3665 3514 3570 0
3665 -3663 -3514 0
3665 -3663 -3570 0
3665 -3514 -3570 0
-3668 3665 3516 3571 0
-3668 3665 -3516 -3571 0
-3668 -3665 3516 -3571 0
3668 3665 3516 -3571 0
-3668 -3665 -3516 3571 0
3668 3665 -3516 3571 0
3668 -3665 3516 3571 0
3668 -3665 -3516 -3571 0
-3667 3665 3516 0
-3667 3665 3571 0
-3667 3516 3571 0
3667 -3665 -3516 0
3667 -3665 -3571 0
3667 -3516 -3571 0
-3670 3667 3518 3572 0
-3670 3667 -3518 -3572 0
-3670 -3667 3518 -3572 0
3670 3667 3518 -3572 0
-3670 -3667 -3518 3572 0
3670 3667 -3518 3572 0
3670 -3667 3518 3572 0
3670 -3667 -3518 -3572 0
-3669 3667 3518 0
-3669 3667 3572 0
-3669 3518 3572 0
3669 -3667 -3518 0
3669 -3667 -3572 0
3669 -3518 -3572 0
-3672 3669 3520 3573 0
-3672 3669 -3520 -3573 0
-3672 -3669 3520 -3573 0
3672 3669 3520 -3573 0
-3672 -3669 -3520 3573 0
3672 3669 -3520 3573 0
3672 -3669 3520 3573 0
3672 -3669 -3520 -3573 0
-3671 3669 3520 0
-3671 3669 3573 0
-3671 3520 3573 0
3671 -3669 -3520 0
3671 -3669 -3573 0
3671 -3520 -3573 0
-3674 3671 3522 3574 0
-3674 3671 -3522 -3574 0
-3674 -3671 3522 -3574 0
3674 3671 3522 -3574 0
-3674 -3671 -3522 3574 0
3674 3671 -3522 3574 0
3674 -3671 3522 3574 0
3674 -3671 -3522 -3574 0
-3673 3671 3522 0
-3673 3671 3574 0
-3673 3522 3574 0
3673 -3671 -3522 0
3673 -3671 -3574 0
3673 -3522 -3574 0
-3676 3673 3524 3575 0
-3676 3673 -3524 -3575 0
-3676 -3673 3524 -3575 0
3676 3673 3524 -3575 0
-3676 -3673 -3524 3575 0
3676 3673 -3524 3575 0
3676 -3673 3524 3575 0
3676 -3673 -3524 -3575 0
-3675 3673 3524 0
-3675 3673 3575 0
-3675 3524 3575 0
3675 -3673 -3524 0
3675 -3673 -3575 0
3675 -3524 -3575 0
-3678 3675 3526 3576 0
-3678 3675 -3526 -3576 0
-3678 -3675 3526 -3576 0
3678 3675 3526 -3576 0
-3678 -3675 -3526 3576 0
3678 3675 -3526 3576 0
3678 -3675 3526 3576 0
3678 -3675 -3526 -3576 0
-3677 3675 3526 0
-3677 3675 3576 0
-3677 3526 3576 0
3677 -3675 -3526 0
3677 -3675 -3576 0
3677 -3526 -3576 0
-3680 3677 3528 3577 0
-3680 3677 -3528 -3577 0
-3680 -3677 3528 -3577 0
3680 3677 3528 -3577 0
-3680 -3677 -3528 3577 0
3680 3677 -3528 3577 0
3680 -3677 3528 3577 0
3680 -3677 -3528 -3577 0
-3679 3677 3528 0
-3679 3677 3577 0
-3679 3528 3577 0
3679 -3677 -3528 0
3679 -3677 -3577 0
3679 -3528 -3577 0
-3682 3679 3530 3578 0
-3682 3679 -3530 -3578 0
-3682 -3679 3530 -3578 0
3682 3679 3530 -3578 0
-3682 -3679 -3530 3578 0
3682 3679 -3530 3578 0
3682 -3679 3530 3578 0
3682 -3679 -3530 -3578 0
-3681 3679 3530 0
-3681 3679 3578 0
-3681 3530 3578 0
3681 -3679 -3530 0
3681 -3679 -3578 0
3681 -3530 -3578 0
-3684 3681 3532 3579 0
-3684 3681 -3532 -3579 0
-3684 -3681 3532 -3579 0
3684 3681 3532 -3579 0
-3684 -3681 -3532 3579 0
3684 3681 -3532 3579 0
3684 -3681 3532 3579 0
3684 -3681 -3532 -3579 0
-3683 3681 3532 0
-3683 3681 3579 0
-3683 3532 3579 0
3683 -3681 -3532 0
3683 -3681 -3579 0
3683 -3532 -3579 0
-3686 3683 3534 3580 0
-3686 3683 -3534 -3580 0
-3686 -3683 3534 -3580 0
3686 3683 3534 -3580 0
-3686 -3683 -3534 3580 0
3686 3683 -3534 3580 0
3686 -3683 3534 3580 0
3686 -3683 -3534 -3580 0
-3685 3683 3534 0
-3685 3683 3580 0
-3685 3534 3580 0
3685 -3683 -3534 0
3685 -3683 -3580 0
3685 -3534 -3580 0
-3688 3685 3536 3581 0
-3688 3685 -3536 -3581 0
-3688 -3685 3536 -3581 0
3688 3685 3536 -3581 0
-3688 -3685 -3536 3581 0
3688 3685 -3536 3581 0
3688 -3685 3536 3581 0
3688 -3685 -3536 -3581 0
-3687 3685 3536 0
-3687 3685 3581 0
-3687 3536 3581 0
3687 -3685 -3536 0
3687 -3685 -3581 0
3687 -3536 -3581 0
-3690 3687 3538 3582 0
-3690 3687 -3538 -3582 0
-3690 -3687 3538 -3582 0
3690 3687 3538 -3582 0
-3690 -3687 -3538 3582 0
3690 3687 -3538 3582 0
3690 -3687 3538 3582 0
3690 -3687 -3538 -3582 0
-3689 3687 3538 0
-3689 3687 3582 0
-3689 3538 3582 0
3689 -3687 -3538 0
3689 -3687 -3582 0
3689 -3538 -3582 0
-3692 3689 3540 3583 0
-3692 3689 -3540 -3583 0
-3692 -3689 3540 -3583 0
3692 3689 3540 -3583 0
-3692 -3689 -3540 3583 0
3692 3689 -3540 3583 0
3692 -3689 3540 3583 0
3692 -3689 -3540 -3583 0
-3691 3689 3540 0
-3691 3689 3583 0
-3691 3540 3583 0
3691 -3689 -3540 0
3691 -3689 -3583 0
3691 -3540 -3583 0
-3694 3691 3542 3584 0
-3694 3691 -3542 -3584 0
-3694 -3691 3542 -3584 0
3694 3691 3542 -3584 0
-3694 -3691 -3542 3584 0
3694 3691 -3542 3584 0
3694 -3691 3542 3584 0
3694 -3691 -3542 -3584 0
-3693 3691 3542 0
-3693 3691 3584 0
-3693 3542 3584 0
3693 -3691 -3542 0
3693 -3691 -3584 0
3693 -3542 -3584 0
-3696 3693 3544 3585 0
-3696 3693 -3544 -3585 0
-3696 -3693 3544 -3585 0
3696 3693 3544 -3585 0
-3696 -3693 -3544 3585 0
3696 3693 -3544 3585 0
3696 -3693 3544 3585 0
3696 -3693 -3544 -3585 0
-3695 3693 3544 0
-3695 3693 3585 0
-3695 3544 3585 0
3695 -3693 -3544 0
3695 -3693 -3585 0
3695 -3544 -3585 0
-3698 3695 3546 3586 0
-3698 3695 -3546 -3586 0
-3698 -3695 3546 -3586 0
3698 3695 3546 -3586 0
-3698 -3695 -3546 3586 0
3698 3695 -3546 3586 0
3698 -3695 3546 3586 0
3698 -3695 -3546 -3586 0
-3697 3695 3546 0
-3697 3695 3586 0
-3697 3546 3586 0
3697 -3695 -3546 0
3697 -3695 -3586 0
3697 -3546 -3586 0
-3700 3697 3548 3587 0
-3700 3697 -3548 -3587 0
-3700 -3697 3548 -3587 0
3700 3697 3548 -3587 0
-3700 -3697 -3548 3587 0
3700 3697 -3548 3587 0
3700 -3697 3548 3587 0
3700 -3697 -3548 -3587 0
-3699 3697 3548 0
-3699 3697 3587 0
-3699 3548 3587 0
3699 -3697 -3548 0
3699 -3697 -3587 0
3699 -3548 -3587 0
-3702 3699 3550 3588 0
-3702 3699 -3550 -3588 0
-3702 -3699 3550 -3588 0
3702 3699 3550 -3588 0
-3702 -3699 -3550 3588 0
3702 3699 -3550 3588 0
3702 -3699 3550 3588 0
3702 -3699 -3550 -3588 0
-3701 3699 3550 0
-3701 3699 3588 0
-3701 3550 3588 0
3701 -3699 -3550 0
3701 -3699 -3588 0
3701 -3550 -3588 0
-3704 3701 3552 3589 0
-3704 3701 -3552 -3589 0
-3704 -3701 3552 -3589 0
3704 3701 3552 -3589 0
-3704 -3701 -3552 3589 0
3704 3701 -3552 3589 0
3704 -3701 3552 3589 0
3704 -3701 -3552 -3589 0
-3703 3701 3552 0
-3703 3701 3589 0
-3703 3552 3589 0
3703 -3701 -3552 0
3703 -3701 -3589 0
3703 -3552 -3589 0
-3706 3703 3554 3590 0
-3706 3703 -3554 -3590 0
-3706 -3703 3554 -3590 0
3706 3703 3554 -3590 0
-3706 -3703 -3554 3590 0
3706 3703 -3554 3590 0
3706 -3703 3554 3590 0
3706 -3703 -3554 -3590 0
-3705 3703 3554 0
-3705 3703 3590 0
-3705 3554 3590 0
3705 -3703 -3554 0
3705 -3703 -3590 0
3705 -3554 -3590 0
-3708 3705 3556 3591 0
-3708 3705 -3556 -3591 0
-3708 -3705 3556 -3591 0
3708 3705 3556 -3591 0
-3708 -3705 -3556 3591 0
3708 3705 -3556 3591 0
3708 -3705 3556 3591 0
3708 -3705 -3556 -3591 0
-3707 3705 3556 0
-3707 3705 3591 0
-3707 3556 3591 0
3707 -3705 -3556 0
3707 -3705 -3591 0
3707 -3556 -3591 0
-3710 3707 3558 3592 0
-3710 3707 -3558 -3592 0
-3710 -3707 3558 -3592 0
3710 3707 3558 -3592 0
-3710 -3707 -3558 3592 0
3710 3707 -3558 3592 0
3710 -3707 3558 3592 0
3710 -3707 -3558 -3592 0
-3709 3707 3558 0
-3709 3707 3592 0
-3709 3558 3592 0
3709 -3707 -3558 0
3709 -3707 -3592 0
3709 -3558 -3592 0
-3712 3709 3560 3593 0
-3712 3709 -3560 -3593 0
-3712 -3709 3560 -3593 0
3712 3709 3560 -3593 0
-3712 -3709 -3560 3593 0
3712 3709 -3560 3593 0
3712 -3709 3560 3593 0
3712 -3709 -3560 -3593 0
-3711 3709 3560 0
-3711 3709 3593 0
-3711 3560 3593 0
3711 -3709 -3560 0
3711 -3709 -3593 0
3711 -3560 -3593 0
-3714 3711 3562 3594 0
-3714 3711 -3562 -3594 0
-3714 -3711 3562 -3594 0
3714 3711 3562 -3594 0
-3714 -3711 -3562 3594 0
3714 3711 -3562 3594 0
3714 -3711 3562 3594 0
3714 -3711 -3562 -3594 0
-3713 3711 3562 0
-3713 3711 3594 0
-3713 3562 3594 0
3713 -3711 -3562 0
3713 -3711 -3594 0
3713 -3562 -3594 0
-3716 3713 3564 3595 0
-3716 3713 -3564 -3595 0
-3716 -3713 3564 -3595 0
3716 3713 3564 -3595 0
-3716 -3713 -3564 3595 0
3716 3713 -3564 3595 0
3716 -3713 3564 3595 0
3716 -3713 -3564 -3595 0
-3715 3713 3564 0
-3715 3713 3595 0
-3715 3564 3595 0
3715 -3713 -3564 0
3715 -3713 -3595 0
3715 -3564 -3595 0
-3718 3715 3563 3596 0
-3718 3715 -3563 -3596 0
-3718 -3715 3563 -3596 0
3718 3715 3563 -3596 0
-3718 -3715 -3563 3596 0
3718 3715 -3563 3596 0
3718 -3715 3563 3596 0
3718 -3715 -3563 -3596 0
-3717 3715 3563 0
-3717 3715 3596 0
-3717 3563 3596 0
3717 -3715 -3563 0
3717 -3715 -3596 0
3717 -3563 -3596 0
-3719 1 0
-3719 31 0
3719 -1 -31 0
-3720 2 0
-3720 31 0
3720 -2 -31 0
-3721 3 0
-3721 31 0
3721 -3 -31 0
-3722 4 0
-3722 31 0
3722 -4 -31 0
-3723 5 0
-3723 31 0
3723 -5 -31 0
-3724 6 0
-3724 31 0
3724 -6 -31 0
-3725 7 0
-3725 31 0
3725 -7 -31 0
-3726 8 0
-3726 31 0
3726 -8 -31 0
-3727 9 0
-3727 31 0
3727 -9 -31 0
-3728 10 0
-3728 31 0
3728 -10 -31 0
-3729 11 0
-3729 31 0
3729 -11 -31 0
-3730 12 0
-3730 31 0
3730 -12 -31 0
-3731 13 0
-3731 31 0
3731 -13 -31 0
-3732 14 0
-3732 31 0
3732 -14 -31 0
-3733 15 0
-3733 31 0
3733 -15 -31 0
-3734 16 0
-3734 31 0
3734 -16 -31 0
-3735 17 0
-3735 31 0
3735 -17 -31 0
-3736 18 0
-3736 31 0
3736 -18 -31 0
-3737 19 0
-3737 31 0
3737 -19 -31 0
-3738 20 0
-3738 31 0
3738 -20 -31 0
-3739 21 0
-3739 31 0
3739 -21 -31 0
-3740 22 0
-3740 31 0
3740 -22 -31 0
-3741 23 0
-3741 31 0
3741 -23 -31 0
-3742 24 0
-3742 31 0
3742 -24 -31 0
-3743 25 0
-3743 31 0
3743 -25 -31 0
-3744 26 0
-3744 31 0
3744 -26 -31 0
-3745 27 0
-3745 31 0
3745 -27 -31 0
-3746 28 0
-3746 31 0
3746 -28 -31 0
-3747 29 0
-3747 31 0
3747 -29 -31 0
-3748 30 0
-3748 31 0
3748 -30 -31 0
-3749 31 0
3749 -31 0
-3750 32 0
-3750 31 0
3750 -32 -31 0
-3598 3752 0
3598 -3752 0
-3751 0
3600 3751 -3754 0
-3600 -3751 -3754 0
-3600 3751 3754 0
3600 -3751 3754 0
-3753 3751 0
-3753 3600 0
3753 -3751 -3600 0
3602 3753 -3756 0
-3602 -3753 -3756 0
-3602 3753 3756 0
3602 -3753 3756 0
-3755 3753 0
-3755 3602 0
3755 -3753 -3602 0
3604 3755 -3758 0
-3604 -3755 -3758 0
-3604 3755 3758 0
3604 -3755 3758 0
-3757 3755 0
-3757 3604 0
3757 -3755 -3604 0
3606 3757 -3760 0
-3606 -3757 -3760 0
-3606 3757 3760 0
3606 -3757 3760 0
-3759 3757 0
-3759 3606 0
3759 -3757 -3606 0
3608 3759 -3762 0
-3608 -3759 -3762 0
-3608 3759 3762 0
3608 -3759 3762 0
-3761 3759 0
-3761 3608 0
3761 -3759 -3608 0
3610 3761 -3764 0
-3610 -3761 -3764 0
-3610 3761 3764 0
3610 -3761 3764 0
-3763 3761 0
-3763 3610 0
3763 -3761 -3610 0
3612 3763 -3766 0
-3612 -3763 -3766 0
-3612 3763 3766 0
3612 -3763 3766 0
-3765 3763 0
-3765 3612 0
3765 -3763 -3612 0
3614 3765 -3768 0
-3614 -3765 -3768 0
-3614 3765 3768 0
3614 -3765 3768 0
-3767 3765 0
-3767 3614 0
3767 -3765 -3614 0
3616 3767 -3770 0
-3616 -3767 -3770 0
-3616 3767 3770 0
3616 -3767 3770 0
-3769 3767 0
-3769 3616 0
3769 -3767 -3616 0
3618 3769 -3772 0
-3618 -3769 -3772 0
-3618 3769 3772 0
3618 -3769 3772 0
-3771 3769 0
-3771 3618 0
3771 -3769 -3618 0
3620 3771 -3774 0
-3620 -3771 -3774 0
-3620 3771 3774 0
3620 -3771 3774 0
-3773 3771 0
-3773 3620 0
3773 -3771 -3620 0
3622 3773 -3776 0
-3622 -3773 -3776 0
-3622 3773 3776 0
3622 -3773 3776 0
-3775 3773 0
-3775 3622 0
3775 -3773 -3622 0
3624 3775 -3778 0
-3624 -3775 -3778 0
-3624 3775 3778 0
3624 -3775 3778 0
-3777 3775 0
-3777 3624 0
3777 -3775 -3624 0
3626 3777 -3780 0
-3626 -3777 -3780 0
-3626 3777 3780 0
3626 -3777 3780 0
-3779 3777 0
-3779 3626 0
3779 -3777 -3626 0
3628 3779 -3782 0
-3628 -3779 -3782 0
-3628 3779 3782 0
3628 -3779 3782 0
-3781 3779 0
-3781 3628 0
3781 -3779 -3628 0
3630 3781 -3784 0
-3630 -3781 -3784 0
-3630 3781 3784 0
3630 -3781 3784 0
-3783 3781 0
-3783 3630 0
3783 -3781 -3630 0
3632 3783 -3786 0
-3632 -3783 -3786 0
-3632 3783 3786 0
3632 -3783 3786 0
-3785 3783 0
-3785 3632 0
3785 -3783 -3632 0
3634 3785 -3788 0
-3634 -3785 -3788 0
-3634 3785 3788 0
3634 -3785 3788 0
-3787 3785 0
-3787 3634 0
3787 -3785 -3634 0
3636 3787 -3790 0
-3636 -3787 -3790 0
-3636 3787 3790 0
3636 -3787 3790 0
-3789 3787 0
-3789 3636 0
3789 -3787 -3636 0
3638 3789 -3792 0
-3638 -3789 -3792 0
-3638 3789 3792 0
3638 -3789 3792 0
-3791 3789 0
-3791 3638 0
3791 -3789 -3638 0
3640 3791 -3794 0
-3640 -3791 -3794 0
-3640 3791 3794 0
3640 -3791 3794 0
-3793 3791 0
-3793 3640 0
3793 -3791 -3640 0
3642 3793 -3796 0
-3642 -3793 -3796 0
-3642 3793 3796 0
3642 -3793 3796 0
-3795 3793 0
-3795 3642 0
3795 -3793 -3642 0
3644 3795 -3798 0
-3644 -3795 -3798 0
-3644 3795 3798 0
3644 -3795 3798 0
-3797 3795 0
-3797 3644 0
3797 -3795 -3644 0
3646 3797 -3800 0
-3646 -3797 -3800 0
-3646 3797 3800 0
3646 -3797 3800 0
-3799 3797 0
-3799 3646 0
3799 -3797 -3646 0
3648 3799 -3802 0
-3648 -3799 -3802 0
-3648 3799 3802 0
3648 -3799 3802 0
-3801 3799 0
-3801 3648 0
3801 -3799 -3648 0
3650 3801 -3804 0
-3650 -3801 -3804 0
-3650 3801 3804 0
3650 -3801 3804 0
-3803 3801 0
-3803 3650 0
3803 -3801 -3650 0
3652 3803 -3806 0
-3652 -3803 -3806 0
-3652 3803 3806 0
3652 -3803 3806 0
-3805 3803 0
-3805 3652 0
3805 -3803 -3652 0
3654 3805 -3808 0
-3654 -3805 -3808 0
-3654 3805 3808 0
3654 -3805 3808 0
-3807 3805 0
-3807 3654 0
3807 -3805 -3654 0
3656 3807 -3810 0
-3656 -3807 -3810 0
-3656 3807 3810 0
3656 -3807 3810 0
-3809 3807 0
-3809 3656 0
3809 -3807 -3656 0
-3812 3809 3658 3719 0
-3812 3809 -3658 -3719 0
-3812 -3809 3658 -3719 0
3812 3809 3658 -3719 0
-3812 -3809 -3658 3719 0
3812 3809 -3658 3719 0
3812 -3809 3658 3719 0
3812 -3809 -3658 -3719 0
-3811 3809 3658 0
-3811 3809 3719 0
-3811 3658 3719 0
3811 -3809 -3658 0
3811 -3809 -3719 0
3811 -3658 -3719 0
-3814 3811 3660 3720 0
-3814 3811 -3660 -3720 0
-3814 -3811 3660 -3720 0
3814 3811 3660 -3720 0
-3814 -3811 -3660 3720 0
3814 3811 -3660 3720 0
3814 -3811 3660 3720 0
3814 -3811 -3660 -3720 0
-3813 3811 3660 0
-3813 3811 3720 0
-3813 3660 3720 0
3813 -3811 -3660 0
3813 -3811 -3720 0
3813 -3660 -3720 0
-3816 3813 3662 3721 0
-3816 3813 -3662 -3721 0
-3816 -3813 3662 -3721 0
3816 3813 3662 -3721 0
-3816 -3813 -3662 3721 0
3816 3813 -3662 3721 0
3816 -3813 3662 3721 0
3816 -3813 -3662 -3721 0
-3815 3813 3662 0
-3815 3813 3721 0
-3815 3662 3721 0
3815 -3813 -3662 0
3815 -3813 -3721 0
3815 -3662 -3721 0
-3818 3815 3664 3722 0
-3818 3815 -3664 -3722 0
-3818 -3815 3664 -3722 0
3818 3815 3664 -3722 0
-3818 -3815 -3664 3722 0
3818 3815 -3664 3722 0
3818 -3815 3664 3722 0
3818 -3815 -3664 -3722 0
-3817 3815 3664 0
-3817 3815 3722 0
-3817 3664 3722 0
3817 -3815 -3664 0
3817 -3815 -3722 0
3817 -3664 -3722 0
-3820 3817 3666 3723 0
-3820 3817 -3666 -3723 0
-3820 -3817 3666 -3723 0
3820 3817 3666 -3723 0
-3820 -3817 -3666 3723 0
3820 3817 -3666 3723 0
3820 -3817 3666 3723 0
3820 -3817 -3666 -3723 0
-3819 3817 3666 0
-3819 3817 3723 0
-3819 3666 3723 0
3819 -3817 -3666 0
3819 -3817 -3723 0
3819 -3666 -3723 0
-3822 3819 3668 3724 0
-3822 3819 -3668 -3724 0
-3822 -3819 3668 -3724 0
3822 3819 3668 -3724 0
-3822 -3819 -3668 3724 0
3822 3819 -3668 3724 0
3822 -3819 3668 3724 0
3822 -3819 -3668 -3724 0
-3821 3819 3668 0
-3821 3819 3724 0
-3821 3668 3724 0
3821 -3819 -3668 0
3821 -3819 -3724 0
3821 -3668 -3724 0
-3824 3821 3670 3725 0
-3824 3821 -3670 -3725 0
-3824 -3821 3670 -3725 0
3824 3821 3670 -3725 0
-3824 -3821 -3670 3725 0
3824 3821 -3670 3725 0
3824 -3821 3670 3725 0
3824 -3821 -3670 -3725 0
-3823 3821 3670 0
-3823 3821 3725 0
-3823 3670 3725 0
3823 -3821 -3670 0
3823 -3821 -3725 0
3823 -3670 -3725 0
-3826 3823 3672 3726 0
-3826 3823 -3672 -3726 0
-3826 -3823 3672 -3726 0
3826 3823 3672 -3726 0
-3826 -3823 -3672 3726 0
3826 3823 -3672 3726 0
3826 -3823 3672 3726 0
3826 -3823 -3672 -3726 0
-3825 3823 3672 0
-3825 3823 3726 0
-3825 3672 3726 0
3825 -3823 -3672 0
3825 -3823 -3726 0
3825 -3672 -3726 0
-3828 3825 3674 3727 0
-3828 3825 -3674 -3727 0
-3828 -3825 3674 -3727 0
3828 3825 3674 -3727 0
-3828 -3825 -3674 3727 0
3828 3825 -3674 3727 0
3828 -3825 3674 3727 0
3828 -3825 -3674 -3727 0
-3827 3825 3674 0
-3827 3825 3727 0
-3827 3674 3727 0
3827 -3825 -3674 0
3827 -3825 -3727 0
3827 -3674 -3727 0
-3830 3827 3676 3728 0
-3830 3827 -3676 -3728 0
-3830 -3827 3676 -3728 0
3830 3827 3676 -3728 0
-3830 -3827 -3676 3728 0
3830 3827 -3676 3728 0
3830 -3827 3676 3728 0
3830 -3827 -3676 -3728 0
-3829 3827 3676 0
-3829 3827 3728 0
-3829 3676 3728 0
3829 -3827 -3676 0
3829 -3827 -3728 0
3829 -3676 -3728 0
-3832 3829 3678 3729 0
-3832 3829 -3678 -3729 0
-3832 -3829 3678 -3729 0
3832 3829 3678 -3729 0
-3832 -3829 -3678 3729 0
3832 3829 -3678 3729 0
3832 -3829 3678 3729 0
3832 -3829 -3678 -3729 0
-3831 3829 3678 0
-3831 3829 3729 0
-3831 3678 3729 0
3831 -3829 -3678 0
3831 -3829 -3729 0
3831 -3678 -3729 0
-3834 3831 3680 3730 0
-3834 3831 -3680 -3730 0
-3834 -3831 3680 -3730 0
3834 3831 3680 -3730 0
-3834 -3831 -3680 3730 0
3834 3831 -3680 3730 0
3834 -3831 3680 3730 0
3834 -3831 -3680 -3730 0
-3833 3831 3680 0
-3833 3831 3730 0
-3833 3680 3730 0
3833 -3831 -3680 0
3833 -3831 -3730 0
3833 -3680 -3730 0
-3836 3833 3682 3731 0
-3836 3833 -3682 -3731 0
-3836 -3833 3682 -3731 0
3836 3833 3682 -3731 0
-3836 -3833 -3682 3731 0
3836 3833 -3682 3731 0
3836 -3833 3682 3731 0
3836 -3833 -3682 -3731 0
-3835 3833 3682 0
-3835 3833 3731 0
-3835 3682 3731 0
3835 -3833 -3682 0
3835 -3833 -3731 0
3835 -3682 -3731 0
-3838 3835 3684 3732 0
-3838 3835 -3684 -3732 0
-3838 -3835 3684 -3732 0
3838 3835 3684 -3732 0
-3838 -3835 -3684 3732 0
3838 3835 -3684 3732 0
3838 -3835 3684 3732 0
3838 -3835 -3684 -3732 0
-3837 3835 3684 0
-3837 3835 3732 0
-3837 3684 3732 0
3837 -3835 -3684 0
3837 -3835 -3732 0
3837 -3684 -3732 0
-3840 3837 3686 3733 0
-3840 3837 -3686 -3733 0
-3840 -3837 3686 -3733 0
3840 3837 3686 -3733 0
-3840 -3837 -3686 3733 0
3840 3837 -3686 3733 0
3840 -3837 3686 3733 0
3840 -3837 -3686 -3733 0
-3839 3837 3686 0
-3839 3837 3733 0
-3839 3686 3733 0
3839 -3837 -3686 0
3839 -3837 -3733 0
3839 -3686 -3733 0
-3842 3839 3688 3734 0
-3842 3839 -3688 -3734 0
-3842 -3839 3688 -3734 0
3842 3839 3688 -3734 0
-3842 -3839 -3688 3734 0
3842 3839 -3688 3734 0
3842 -3839 3688 3734 0
3842 -3839 -3688 -3734 0
-3841 3839 3688 0
-3841 3839 3734 0
-3841 3688 3734 0
3841 -3839 -3688 0
3841 -3839 -3734 0
3841 -3688 -3734 0
-3844 3841 3690 3735 0
-3844 3841 -3690 -3735 0
-3844 -3841 3690 -3735 0
3844 3841 3690 -3735 0
-3844 -3841 -3690 3735 0
3844 3841 -3690 3735 0
3844 -3841 3690 3735 0
3844 -3841 -3690 -3735 0
-3843 3841 3690 0
-3843 3841 3735 0
-3843 3690 3735 0
3843 -3841 -3690 0
3843 -3841 -3735 0
3843 -3690 -3735 0
-3846 3843 3692 3736 0
-3846 3843 -3692 -3736 0
-3846 -3843 3692 -3736 0
3846 3843 3692 -3736 0
-3846 -3843 -3692 3736 0
3846 3843 -3692 3736 0
3846 -3843 3692 3736 0
3846 -3843 -3692 -3736 0
-3845 3843 3692 0
-3845 3843 3736 0
-3845 3692 3736 0
3845 -3843 -3692 0
3845 -3843 -3736 0
3845 -3692 -3736 0
-3848 3845 3694 3737 0
-3848 3845 -3694 -3737 0
-3848 -3845 3694 -3737 0
3848 3845 3694 -3737 0
-3848 -3845 -3694 3737 0
3848 3845 -3694 3737 0
3848 -3845 3694 3737 0
3848 -3845 -3694 -3737 0
-3847 3845 3694 0
-3847 3845 3737 0
-3847 3694 3737 0
3847 -3845 -3694 0
3847 -3845 -3737 0
3847 -3694 -3737 0
-3850 3847 3696 3738 0
-3850 3847 -3696 -3738 0
-3850 -3847 3696 -3738 0
3850 3847 3696 -3738 0
-3850 -3847 -3696 3738 0
3850 3847 -3696 3738 0
3850 -3847 3696 3738 0
3850 -3847 -3696 -3738 0
-3849 3847 3696 0
-3849 3847 3738 0
-3849 3696 3738 0
3849 -3847 -3696 0
3849 -3847 -3738 0
3849 -3696 -3738 0
-3852 3849 3698 3739 0
-3852 3849 -3698 -3739 0
-3852 -3849 3698 -3739 0
3852 3849 3698 -3739 0
-3852 -3849 -3698 3739 0
3852 3849 -3698 3739 0
3852 -3849 3698 3739 0
3852 -3849 -3698 -3739 0
-3851 3849 3698 0
-3851 3849 3739 0
-3851 3698 3739 0
3851 -3849 -3698 0
3851 -3849 -3739 0
3851 -3698 -3739 0
-3854 3851 3700 3740 0
-3854 3851 -3700 -3740 0
-3854 -3851 3700 -3740 0
3854 3851 3700 -3740 0
-3854 -3851 -3700 3740 0
3854 3851 -3700 3740 0
3854 -3851 3700 3740 0
3854 -3851 -3700 -3740 0
-3853 3851 3700 0
-3853 3851 3740 0
-3853 3700 3740 0
3853 -3851 -3700 0
3853 -3851 -3740 0
3853 -3700 -3740 0
-3856 3853 3702 3741 0
-3856 3853 -3702 -3741 0
-3856 -3853 3702 -3741 0
3856 3853 3702 -3741 0
-3856 -3853 -3702 3741 0
3856 3853 -3702 3741 0
3856 -3853 3702 3741 0
3856 -3853 -3702 -3741 0
-3855 3853 3702 0
-3855 3853 3741 0
-3855 3702 3741 0
3855 -3853 -3702 0
3855 -3853 -3741 0
3855 -3702 -3741 0
-3858 3855 3704 3742 0
-3858 3855 -3704 -3742 0
-3858 -3855 3704 -3742 0
3858 3855 3704 -3742 0
-3858 -3855 -3704 3742 0
3858 3855 -3704 3742 0
3858 -3855 3704 3742 0
3858 -3855 -3704 -3742 0
-3857 3855 3704 0
-3857 3855 3742 0
-3857 3704 3742 0
3857 -3855 -3704 0
3857 -3855 -3742 0
3857 -3704 -3742 0
-3860 3857 3706 3743 0
-3860 3857 -3706 -3743 0
-3860 -3857 3706 -3743 0
3860 3857 3706 -3743 0
-3860 -3857 -3706 3743 0
3860 3857 -3706 3743 0
3860 -3857 3706 3743 0
3860 -3857 -3706 -3743 0
-3859 3857 3706 0
-3859 3857 3743 0
-3859 3706 3743 0
3859 -3857 -3706 0
3859 -3857 -3743 0
3859 -3706 -3743 0
-3862 3859 3708 3744 0
-3862 3859 -3708 -3744 0
-3862 -3859 3708 -3744 0
3862 3859 3708 -3744 0
-3862 -3859 -3708 3744 0
3862 3859 -3708 3744 0
3862 -3859 3708 3744 0
3862 -3859 -3708 -3744 0
-3861 3859 3708 0
-3861 3859 3744 0
-3861 3708 3744 0
3861 -3859 -3708 0
3861 -3859 -3744 0
3861 -3708 -3744 0
-3864 3861 3710 3745 0
-3864 3861 -3710 -3745 0
-3864 -3861 3710 -3745 0
3864 3861 3710 -3745 0
-3864 -3861 -3710 3745 0
3864 3861 -3710 3745 0
3864 -3861 3710 3745 0
3864 -3861 -3710 -3745 0
-3863 3861 3710 0
-3863 3861 3745 0
-3863 3710 3745 0
3863 -3861 -3710 0
3863 -3861 -3745 0
3863 -3710 -3745 0
-3866 3863 3712 3746 0
-3866 3863 -3712 -3746 0
-3866 -3863 3712 -3746 0
3866 3863 3712 -3746 0
-3866 -3863 -3712 3746 0
3866 3863 -3712 3746 0
3866 -3863 3712 3746 0
3866 -3863 -3712 -3746 0
-3865 3863 3712 0
-3865 3863 3746 0
-3865 3712 3746 0
3865 -3863 -3712 0
3865 -3863 -3746 0
3865 -3712 -3746 0
-3868 3865 3714 3747 0
-3868 3865 -3714 -3747 0
-3868 -3865 3714 -3747 0
3868 3865 3714 -3747 0
-3868 -3865 -3714 3747 0
3868 3865 -3714 3747 0
3868 -3865 3714 3747 0
3868 -3865 -3714 -3747 0
-3867 3865 3714 0
-3867 3865 3747 0
-3867 3714 3747 0
3867 -3865 -3714 0
3867 -3865 -3747 0
3867 -3714 -3747 0
-3870 3867 3716 3748 0
-3870 3867 -3716 -3748 0
-3870 -3867 3716 -3748 0
3870 3867 3716 -3748 0
-3870 -3867 -3716 3748 0
3870 3867 -3716 3748 0
3870 -3867 3716 3748 0
3870 -3867 -3716 -3748 0
-3869 3867 3716 0
-3869 3867 3748 0
-3869 3716 3748 0
3869 -3867 -3716 0
3869 -3867 -3748 0
3869 -3716 -3748 0
-3872 3869 3718 3749 0
-3872 3869 -3718 -3749 0
-3872 -3869 3718 -3749 0
3872 3869 3718 -3749 0
-3872 -3869 -3718 3749 0
3872 3869 -3718 3749 0
3872 -3869 3718 3749 0
3872 -3869 -3718 -3749 0
-3871 3869 3718 0
-3871 3869 3749 0
-3871 3718 3749 0
3871 -3869 -3718 0
3871 -3869 -3749 0
3871 -3718 -3749 0
-3874 3871 3717 3750 0
-3874 3871 -3717 -3750 0
-3874 -3871 3717 -3750 0
3874 3871 3717 -3750 0
-3874 -3871 -3717 3750 0
3874 3871 -3717 3750 0
3874 -3871 3717 3750 0
3874 -3871 -3717 -3750 0
-3873 3871 3717 0
-3873 3871 3750 0
-3873 3717 3750 0
3873 -3871 -3717 0
3873 -3871 -3750 0
3873 -3717 -3750 0
-3875 1 0
-3875 32 0
3875 -1 -32 0
-3876 2 0
-3876 32 0
3876 -2 -32 0
-3877 3 0
-3877 32 0
3877 -3 -32 0
-3878 4 0
-3878 32 0
3878 -4 -32 0
-3879 5 0
-3879 32 0
3879 -5 -32 0
-3880 6 0
-3880 32 0
3880 -6 -32 0
-3881 7 0
-3881 32 0
3881 -7 -32 0
-3882 8 0
-3882 32 0
3882 -8 -32 0
-3883 9 0
-3883 32 0
3883 -9 -32 0
-3884 10 0
-3884 32 0
3884 -10 -32 0
-3885 11 0
-3885 32 0
3885 -11 -32 0
-3886 12 0
-3886 32 0
3886 -12 -32 0
-3887 13 0
-3887 32 0
3887 -13 -32 0
-3888 14 0
-3888 32 0
3888 -14 -32 0
-3889 15 0
-3889 32 0
3889 -15 -32 0
-3890 16 0
-3890 32 0
3890 -16 -32 0
-3891 17 0
-3891 32 0
3891 -17 -32 0
-3892 18 0
-3892 32 0
3892 -18 -32 0
-3893 19 0
-3893 32 0
3893 -19 -32 0
-3894 20 0
-3894 32 0
3894 -20 -32 0
-3895 21 0
-3895 32 0
3895 -21 -32 0
-3896 22 0
-3896 32 0
3896 -22 -32 0
-3897 23 0
-3897 32 0
3897 -23 -32 0
-3898 24 0
-3898 32 0
3898 -24 -32 0
-3899 25 0
-3899 32 0
3899 -25 -32 0
-3900 26 0
-3900 32 0
3900 -26 -32 0
-3901 27 0
-3901 32 0
3901 -27 -32 0
-3902 28 0
-3902 32 0
3902 -28 -32 0
-3903 29 0
-3903 32 0
3903 -29 -32 0
-3904 30 0
-3904 32 0
3904 -30 -32 0
-3905 31 0
-3905 32 0
3905 -31 -32 0
-3906 32 0
3906 -32 0
-3752 3908 0
3752 -3908 0
-3907 0
3754 3907 -3910 0
-3754 -3907 -3910 0
-3754 3907 3910 0
3754 -3907 3910 0
-3909 3907 0
-3909 3754 0
3909 -3907 -3754 0
3756 3909 -3912 0
-3756 -3909 -3912 0
-3756 3909 3912 0
3756 -3909 3912 0
-3911 3909 0
-3911 3756 0
3911 -3909 -3756 0
3758 3911 -3914 0
-3758 -3911 -3914 0
-3758 3911 3914 0
3758 -3911 3914 0
-3913 3911 0
-3913 3758 0
3913 -3911 -3758 0
3760 3913 -3916 0
-3760 -3913 -3916 0
-3760 3913 3916 0
3760 -3913 3916 0
-3915 3913 0
-3915 3760 0
3915 -3913 -3760 0
3762 3915 -3918 0
-3762 -3915 -3918 0
-3762 3915 3918 0
3762 -3915 3918 0
-3917 3915 0
-3917 3762 0
3917 -3915 -3762 0
3764 3917 -3920 0
-3764 -3917 -3920 0
-3764 3917 3920 0
3764 -3917 3920 0
-3919 3917 0
-3919 3764 0
3919 -3917 -3764 0
3766 3919 -3922 0
-3766 -3919 -3922 0
-3766 3919 3922 0
3766 -3919 3922 0
-3921 3919 0
-3921 3766 0
3921 -3919 -3766 0
3768 3921 -3924 0
-3768 -3921 -3924 0
-3768 3921 3924 0
3768 -3921 3924 0
-3923 3921 0
-3923 3768 0
3923 -3921 -3768 0
3770 3923 -3926 0
-3770 -3923 -3926 0
-3770 3923 3926 0
3770 -3923 3926 0
-3925 3923 0
-3925 3770 0
3925 -3923 -3770 0
3772 3925 -3928 0
-3772 -3925 -3928 0
-3772 3925 3928 0
3772 -3925 3928 0
-3927 3925 0
-3927 3772 0
3927 -3925 -3772 0
3774 3927 -3930 0
-3774 -3927 -3930 0
-3774 3927 3930 0
3774 -3927 3930 0
-3929 3927 0
-3929 3774 0
3929 -3927 -3774 0
3776 3929 -3932 0
-3776 -3929 -3932 0
-3776 3929 3932 0
3776 -3929 3932 0
-3931 3929 0
-3931 3776 0
3931 -3929 -3776 0
3778 3931 -3934 0
-3778 -3931 -3934 0
-3778 3931 3934 0
3778 -3931 3934 0
-3933 3931 0
-3933 3778 0
3933 -3931 -3778 0
3780 3933 -3936 0
-3780 -3933 -3936 0
-3780 3933 3936 0
3780 -3933 3936 0
-3935 3933 0
-3935 3780 0
3935 -3933 -3780 0
3782 3935 -3938 0
-3782 -3935 -3938 0
-3782 3935 3938 0
3782 -3935 3938 0
-3937 3935 0
-3937 3782 0
3937 -3935 -3782 0
3784 3937 -3940 0
-3784 -3937 -3940 0
-3784 3937 3940 0
3784 -3937 3940 0
-3939 3937 0
-3939 3784 0
3939 -3937 -3784 0
3786 3939 -3942 0
-3786 -3939 -3942 0
-3786 3939 3942 0
3786 -3939 3942 0
-3941 3939 0
-3941 3786 0
3941 -3939 -3786 0
3788 3941 -3944 0
-3788 -3941 -3944 0
-3788 3941 3944 0
3788 -3941 3944 0
-3943 3941 0
-3943 3788 0
3943 -3941 -3788 0
3790 3943 -3946 0
-3790 -3943 -3946 0
-3790 3943 3946 0
3790 -3943 3946 0
-3945 3943 0
-3945 3790 0
3945 -3943 -3790 0
3792 3945 -3948 0
-3792 -3945 -3948 0
-3792 3945 3948 0
3792 -3945 3948 0
-3947 3945 0
-3947 3792 0
3947 -3945 -3792 0
3794 3947 -3950 0
-3794 -3947 -3950 0
-3794 3947 3950 0
3794 -3947 3950 0
-3949 3947 0
-3949 3794 0
3949 -3947 -3794 0
3796 3949 -3952 0
-3796 -3949 -3952 0
-3796 3949 3952 0
3796 -3949 3952 0
-3951 3949 0
-3951 3796 0
3951 -3949 -3796 0
3798 3951 -3954 0
-3798 -3951 -3954 0
-3798 3951 3954 0
3798 -3951 3954 0
-3953 3951 0
-3953 3798 0
3953 -3951 -3798 0
3800 3953 -3956 0
-3800 -3953 -3956 0
-3800 3953 3956 0
3800 -3953 3956 0
-3955 3953 0
-3955 3800 0
3955 -3953 -3800 0
3802 3955 -3958 0
-3802 -3955 -3958 0
-3802 3955 3958 0
3802 -3955 3958 0
-3957 3955 0
-3957 3802 0
3957 -3955 -3802 0
3804 3957 -3960 0
-3804 -3957 -3960 0
-3804 3957 3960 0
3804 -3957 3960 0
-3959 3957 0
-3959 3804 0
3959 -3957 -3804 0
3806 3959 -3962 0
-3806 -3959 -3962 0
-3806 3959 3962 0
3806 -3959 3962 0
-3961 3959 0
-3961 3806 0
3961 -3959 -3806 0
3808 3961 -3964 0
-3808 -3961 -3964 0
-3808 3961 3964 0
3808 -3961 3964 0
-3963 3961 0
-3963 3808 0
3963 -3961 -3808 0
3810 3963 -3966 0
-3810 -3963 -3966 0
-3810 3963 3966 0
3810 -3963 3966 0
-3965 3963 0
-3965 3810 0
3965 -3963 -3810 0
3812 3965 -3968 0
-3812 -3965 -3968 0
-3812 3965 3968 0
3812 -3965 3968 0
-3967 3965 0
-3967 3812 0
3967 -3965 -3812 0
-3970 3967 3814 3875 0
-3970 3967 -3814 -3875 0
-3970 -3967 3814 -3875 0
3970 3967 3814 -3875 0
-3970 -3967 -3814 3875 0
3970 3967 -3814 3875 0
3970 -3967 3814 3875 0
3970 -3967 -3814 -3875 0
-3969 3967 3814 0
-3969 3967 3875 0
-3969 3814 3875 0
3969 -3967 -3814 0
3969 -3967 -3875 0
3969 -3814 -3875 0
-3972 3969 3816 3876 0
-3972 3969 -3816 -3876 0
-3972 -3969 3816 -3876 0
3972 3969 3816 -3876 0
-3972 -3969 -3816 3876 0
3972 3969 -3816 3876 0
3972 -3969 3816 3876 0
3972 -3969 -3816 -3876 0
-3971 3969 3816 0
-3971 3969 3876 0
-3971 3816 3876 0
3971 -3969 -3816 0
3971 -3969 -3876 0
3971 -3816 -3876 0
-3974 3971 3818 3877 0
-3974 3971 -3818 -3877 0
-3974 -3971 3818 -3877 0
3974 3971 3818 -3877 0
-3974 -3971 -3818 3877 0
3974 3971 -3818 3877 0
3974 -3971 3818 3877 0
3974 -3971 -3818 -3877 0
-3973 3971 3818 0
-3973 3971 3877 0
-3973 3818 3877 0
3973 -3971 -3818 0
3973 -3971 -3877 0
3973 -3818 -3877 0
-3976 3973 3820 3878 0
-3976 3973 -3820 -3878 0
-3976 -3973 3820 -3878 0
3976 3973 3820 -3878 0
-3976 -3973 -3820 3878 0
3976 3973 -3820 3878 0
3976 -3973 3820 3878 0
3976 -3973 -3820 -3878 0
-3975 3973 3820 0
-3975 3973 3878 0
-3975 3820 3878 0
3975 -3973 -3820 0
3975 -3973 -3878 0
3975 -3820 -3878 0
-3978 3975 3822 3879 0
-3978 3975 -3822 -3879 0
-3978 -3975 3822 -3879 0
3978 3975 3822 -3879 0
-3978 -3975 -3822 3879 0
3978 3975 -3822 3879 0
3978 -3975 3822 3879 0
3978 -3975 -3822 -3879 0
-3977 3975 3822 0
-3977 3975 3879 0
-3977 3822 3879 0
3977 -3975 -3822 0
3977 -3975 -3879 0
3977 -3822 -3879 0
-3980 3977 3824 3880 0
-3980 3977 -3824 -3880 0
-3980 -3977 3824 -3880 0
3980 3977 3824 -3880 0
-3980 -3977 -3824 3880 0
3980 3977 -3824 3880 0
3980 -3977 3824 3880 0
3980 -3977 -3824 -3880 0
-3979 3977 3824 0
-3979 3977 3880 0
-3979 3824 3880 0
3979 -3977 -3824 0
3979 -3977 -3880 0
3979 -3824 -3880 0
-3982 3979 3826 3881 0
-3982 3979 -3826 -3881 0
-3982 -3979 3826 -3881 0
3982 3979 3826 -3881 0
-3982 -3979 -3826 3881 0
3982 3979 -3826 3881 0
3982 -3979 3826 3881 0
3982 -3979 -3826 -3881 0
-3981 3979 3826 0
-3981 3979 3881 0
-3981 3826 3881 0
3981 -3979 -3826 0
3981 -3979 -3881 0
3981 -3826 -3881 0
-3984 3981 3828 3882 0
-3984 3981 -3828 -3882 0
-3984 -3981 3828 -3882 0
3984 3981 3828 -3882 0
-3984 -3981 -3828 3882 0
3984 3981 -3828 3882 0
3984 -3981 3828 3882 0
3984 -3981 -3828 -3882 0
-3983 3981 3828 0
-3983 3981 3882 0
-3983 3828 3882 0
3983 -3981 -3828 0
3983 -3981 -3882 0
3983 -3828 -3882 0
-3986 3983 3830 3883 0
-3986 3983 -3830 -3883 0
-3986 -3983 3830 -3883 0
3986 3983 3830 -3883 0
-3986 -3983 -3830 3883 0
3986 3983 -3830 3883 0
3986 -3983 3830 3883 0
3986 -3983 -3830 -3883 0
-3985 3983 3830 0
-3985 3983 3883 0
-3985 3830 3883 0
3985 -3983 -3830 0
3985 -3983 -3883 0
3985 -3830 -3883 0
-3988 3985 3832 3884 0
-3988 3985 -3832 -3884 0
-3988 -3985 3832 -3884 0
3988 3985 3832 -3884 0
-3988 -3985 -3832 3884 0
3988 3985 -3832 3884 0
3988 -3985 3832 3884 0
3988 -3985 -3832 -3884 0
-3987 3985 3832 0
-3987 3985 3884 0
-3987 3832 3884 0
3987 -3985 -3832 0
3987 -3985 -3884 0
3987 -3832 -3884 0
-3990 3987 3834 3885 0
-3990 3987 -3834 -3885 0
-3990 -3987 3834 -3885 0
3990 3987 3834 -3885 0
-3990 -3987 -3834 3885 0
3990 3987 -3834 3885 0
3990 -3987 3834 3885 0
3990 -3987 -3834 -3885 0
-3989 3987 3834 0
-3989 3987 3885 0
-3989 3834 3885 0
3989 -3987 -3834 0
3989 -3987 -3885 0
3989 -3834 -3885 0
-3992 3989 3836 3886 0
-3992 3989 -3836 -3886 0
-3992 -3989 3836 -3886 0
3992 3989 3836 -3886 0
-3992 -3989 -3836 3886 0
3992 3989 -3836 3886 0
3992 -3989 3836 3886 0
3992 -3989 -3836 -3886 0
-3991 3989 3836 0
-3991 3989 3886 0
-3991 3836 3886 0
3991 -3989 -3836 0
3991 -3989 -3886 0
3991 -3836 -3886 0
-3994 3991 3838 3887 0
-3994 3991 -3838 -3887 0
-3994 -3991 3838 -3887 0
3994 3991 3838 -3887 0
-3994 -3991 -3838 3887 0
3994 3991 -3838 3887 0
3994 -3991 3838 3887 0
3994 -3991 -3838 -3887 0
-3993 3991 3838 0
-3993 3991 3887 0
-3993 3838 3887 0
3993 -3991 -3838 0
3993 -3991 -3887 0
3993 -3838 -3887 0
-3996 3993 3840 3888 0
-3996 3993 -3840 -3888 0
-3996 -3993 3840 -3888 0
3996 3993 3840 -3888 0
-3996 -3993 -3840 3888 0
3996 3993 -3840 3888 0
3996 -3993 3840 3888 0
3996 -3993 -3840 -3888 0
-3995 3993 3840 0
-3995 3993 3888 0
-3995 3840 3888 0
3995 -3993 -3840 0
3995 -3993 -3888 0
3995 -3840 -3888 0
-3998 3995 3842 3889 0
-3998 3995 -3842 -3889 0
-3998 -3995 3842 -3889 0
3998 3995 3842 -3889 0
-3998 -3995 -3842 3889 0
3998 3995 -3842 3889 0
3998 -3995 3842 3889 0
3998 -3995 -3842 -3889 0
-3997 3995 3842 0
-3997 3995 3889 0
-3997 3842 3889 0
3997 -3995 -3842 0
3997 -3995 -3889 0
3997 -3842 -3889 0
-4000 3997 3844 3890 0
-4000 3997 -3844 -3890 0
-4000 -3997 3844 -3890 0
4000 3997 3844 -3890 0
-4000 -3997 -3844 3890 0
4000 3997 -3844 3890 0
4000 -3997 3844 3890 0
4000 -3997 -3844 -3890 0
-3999 3997 3844 0
-3999 3997 3890 0
-3999 3844 3890 0
3999 -3997 -3844 0
3999 -3997 -3890 0
3999 -3844 -3890 0
-4002 3999 3846 3891 0
-4002 3999 -3846 -3891 0
-4002 -3999 3846 -3891 0
4002 3999 3846 -3891 0
-4002 -3999 -3846 3891 0
4002 3999 -3846 3891 0
4002 -3999 3846 3891 0
4002 -3999 -3846 -3891 0
-4001 3999 3846 0
-4001 3999 3891 0
-4001 3846 3891 0
4001 -3999 -3846 0
4001 -3999 -3891 0
4001 -3846 -3891 0
-4004 4001 3848 3892 0
-4004 4001 -3848 -3892 0
-4004 -4001 3848 -3892 0
4004 4001 3848 -3892 0
-4004 -4001 -3848 3892 0
4004 4001 -3848 3892 0
4004 -4001 3848 3892 0
4004 -4001 -3848 -3892 0
-4003 4001 3848 0
-4003 4001 3892 0
-4003 3848 3892 0
4003 -4001 -3848 0
4003 -4001 -3892 0
4003 -3848 -3892 0
-4006 4003 3850 3893 0
-4006 4003 -3850 -3893 0
-4006 -4003 3850 -3893 0
4006 4003 3850 -3893 0
-4006 -4003 -3850 3893 0
4006 4003 -3850 3893 0
4006 -4003 3850 3893 0
4006 -4003 -3850 -3893 0
-4005 4003 3850 0
-4005 4003 3893 0
-4005 3850 3893 0
4005 -4003 -3850 0
4005 -4003 -3893 0
4005 -3850 -3893 0
-4008 4005 3852 3894 0
-4008 4005 -3852 -3894 0
-4008 -4005 3852 -3894 0
4008 4005 3852 -3894 0
-4008 -4005 -3852 3894 0
4008 4005 -3852 3894 0
4008 -4005 3852 3894 0
4008 -4005 -3852 -3894 0
-4007 4005 3852 0
-4007 4005 3894 0
-4007 3852 3894 0
4007 -4005 -3852 0
4007 -4005 -3894 0
4007 -3852 -3894 0
-4010 4007 3854 3895 0
-4010 4007 -3854 -3895 0
-4010 -4007 3854 -3895 0
4010 4007 3854 -3895 0
-4010 -4007 -3854 3895 0
4010 4007 -3854 3895 0
4010 -4007 3854 3895 0
4010 -4007 -3854 -3895 0
-4009 4007 3854 0
-4009 4007 3895 0
-4009 3854 3895 0
4009 -4007 -3854 0
4009 -4007 -3895 0
4009 -3854 -3895 0
-4012 4009 3856 3896 0
-4012 4009 -3856 -3896 0
-4012 -4009 3856 -3896 0
4012 4009 3856 -3896 0
-4012 -4009 -3856 3896 0
4012 4009 -3856 3896 0
4012 -4009 3856 3896 0
4012 -4009 -3856 -3896 0
-4011 4009 3856 0
-4011 4009 3896 0
-4011 3856 3896 0
4011 -4009 -3856 0
4011 -4009 -3896 0
4011 -3856 -3896 0
-4014 4011 3858 3897 0
-4014 4011 -3858 -3897 0
-4014 -4011 3858 -3897 0
4014 4011 3858 -3897 0
-4014 -4011 -3858 3897 0
4014 4011 -3858 3897 0
4014 -4011 3858 3897 0
4014 -4011 -3858 -3897 0
-4013 4011 3858 0
-4013 4011 3897 0
-4013 3858 3897 0
4013 -4011 -3858 0
4013 -4011 -3897 0
4013 -3858 -3897 0
-4016 4013 3860 3898 0
-4016 4013 -3860 -3898 0
-4016 -4013 3860 -3898 0
4016 4013 3860 -3898 0
-4016 -4013 -3860 3898 0
4016 4013 -3860 3898 0
4016 -4013 3860 3898 0
4016 -4013 -3860 -3898 0
-4015 4013 3860 0
-4015 4013 3898 0
-4015 3860 3898 0
4015 -4013 -3860 0
4015 -4013 -3898 0
4015 -3860 -3898 0
-4018 4015 3862 3899 0
-4018 4015 -3862 -3899 0
-4018 -4015 3862 -3899 0
4018 4015 3862 -3899 0
-4018 -4015 -3862 3899 0
4018 4015 -3862 3899 0
4018 -4015 3862 3899 0
4018 -4015 -3862 -3899 0
-4017 4015 3862 0
-4017 4015 3899 0
-4017 3862 3899 0
4017 -4015 -3862 0
4017 -4015 -3899 0
4017 -3862 -3899 0
-4020 4017 3864 3900 0
-4020 4017 -3864 -3900 0
-4020 -4017 3864 -3900 0
4020 4017 3864 -3900 0
-4020 -4017 -3864 3900 0
4020 4017 -3864 3900 0
4020 -4017 3864 3900 0
4020 -4017 -3864 -3900 0
-4019 4017 3864 0
-4019 4017 3900 0
-4019 3864 3900 0
4019 -4017 -3864 0
4019 -4017 -3900 0
4019 -3864 -3900 0
-4022 4019 3866 3901 0
-4022 4019 -3866 -3901 0
-4022 -4019 3866 -3901 0
4022 4019 3866 -3901 0
-4022 -4019 -3866 3901 0
4022 4019 -3866 3901 0
4022 -4019 3866 3901 0
4022 -4019 -3866 -3901 0
-4021 4019 3866 0
-4021 4019 3901 0
-4021 3866 3901 0
4021 -4019 -3866 0
4021 -4019 -3901 0
4021 -3866 -3901 0
-4024 4021 3868 3902 0
-4024 4021 -3868 -3902 0
-4024 -4021 3868 -3902 0
4024 4021 3868 -3902 0
-4024 -4021 -3868 3902 0
4024 4021 -3868 3902 0
4024 -4021 3868 3902 0
4024 -4021 -3868 -3902 0
-4023 4021 3868 0
-4023 4021 3902 0
-4023 3868 3902 0
4023 -4021 -3868 0
4023 -4021 -3902 0
4023 -3868 -3902 0
-4026 4023 3870 3903 0
-4026 4023 -3870 -3903 0
-4026 -4023 3870 -3903 0
4026 4023 3870 -3903 0
-4026 -4023 -3870 3903 0
4026 4023 -3870 3903 0
4026 -4023 3870 3903 0
4026 -4023 -3870 -3903 0
-4025 4023 3870 0
-4025 4023 3903 0
-4025 3870 3903 0
4025 -4023 -3870 0
4025 -4023 -3903 0
4025 -3870 -3903 0
-4028 4025 3872 3904 0
-4028 4025 -3872 -3904 0
-4028 -4025 3872 -3904 0
4028 4025 3872 -3904 0
-4028 -4025 -3872 3904 0
4028 4025 -3872 3904 0
4028 -4025 3872 3904 0
4028 -4025 -3872 -3904 0
-4027 4025 3872 0
-4027 4025 3904 0
-4027 3872 3904 0
4027 -4025 -3872 0
4027 -4025 -3904 0
4027 -3872 -3904 0
-4030 4027 3874 3905 0
-4030 4027 -3874 -3905 0
-4030 -4027 3874 -3905 0
4030 4027 3874 -3905 0
-4030 -4027 -3874 3905 0
4030 4027 -3874 3905 0
4030 -4027 3874 3905 0
4030 -4027 -3874 -3905 0
-4029 4027 3874 0
-4029 4027 3905 0
-4029 3874 3905 0
4029 -4027 -3874 0
4029 -4027 -3905 0
4029 -3874 -3905 0
-4032 4029 3873 3906 0
-4032 4029 -3873 -3906 0
-4032 -4029 3873 -3906 0
4032 4029 3873 -3906 0
-4032 -4029 -3873 3906 0
4032 4029 -3873 3906 0
4032 -4029 3873 3906 0
4032 -4029 -3873 -3906 0
-4031 4029 3873 0
-4031 4029 3906 0
-4031 3873 3906 0
4031 -4029 -3873 0
4031 -4029 -3906 0
4031 -3873 -3906 0
-4033 4066 0
4033 -4066 0
-4065 0
-4068 4065 4034 4033 0
-4068 4065 -4034 -4033 0
-4068 -4065 4034 -4033 0
4068 4065 4034 -4033 0
-4068 -4065 -4034 4033 0
4068 4065 -4034 4033 0
4068 -4065 4034 4033 0
4068 -4065 -4034 -4033 0
-4067 4065 4034 0
-4067 4065 4033 0
-4067 4034 4033 0
4067 -4065 -4034 0
4067 -4065 -4033 0
4067 -4034 -4033 0
-4070 4067 4035 4034 0
-4070 4067 -4035 -4034 0
-4070 -4067 4035 -4034 0
4070 4067 4035 -4034 0
-4070 -4067 -4035 4034 0
4070 4067 -4035 4034 0
4070 -4067 4035 4034 0
4070 -4067 -4035 -4034 0
-4069 4067 4035 0
-4069 4067 4034 0
-4069 4035 4034 0
4069 -4067 -4035 0
4069 -4067 -4034 0
4069 -4035 -4034 0
-4072 4069 4036 4035 0
-4072 4069 -4036 -4035 0
-4072 -4069 4036 -4035 0
4072 4069 4036 -4035 0
-4072 -4069 -4036 4035 0
4072 4069 -4036 4035 0
4072 -4069 4036 4035 0
4072 -4069 -4036 -4035 0
-4071 4069 4036 0
-4071 4069 4035 0
-4071 4036 4035 0
4071 -4069 -4036 0
4071 -4069 -4035 0
4071 -4036 -4035 0
-4074 4071 4037 4036 0
-4074 4071 -4037 -4036 0
-4074 -4071 4037 -4036 0
4074 4071 4037 -4036 0
-4074 -4071 -4037 4036 0
4074 4071 -4037 4036 0
4074 -4071 4037 4036 0
4074 -4071 -4037 -4036 0
-4073 4071 4037 0
-4073 4071 4036 0
-4073 4037 4036 0
4073 -4071 -4037 0
4073 -4071 -4036 0
4073 -4037 -4036 0
-4076 4073 4038 4037 0
-4076 4073 -4038 -4037 0
-4076 -4073 4038 -4037 0
4076 4073 4038 -4037 0
-4076 -4073 -4038 4037 0
4076 4073 -4038 4037 0
4076 -4073 4038 4037 0
4076 -4073 -4038 -4037 0
-4075 4073 4038 0
-4075 4073 4037 0
-4075 4038 4037 0
4075 -4073 -4038 0
4075 -4073 -4037 0
4075 -4038 -4037 0
-4078 4075 4039 4038 0
-4078 4075 -4039 -4038 0
-4078 -4075 4039 -4038 0
4078 4075 4039 -4038 0
-4078 -4075 -4039 4038 0
4078 4075 -4039 4038 0
4078 -4075 4039 4038 0
4078 -4075 -4039 -4038 0
-4077 4075 4039 0
-4077 4075 4038 0
-4077 4039 4038 0
4077 -4075 -4039 0
4077 -4075 -4038 0
4077 -4039 -4038 0
-4080 4077 4040 4039 0
-4080 4077 -4040 -4039 0
-4080 -4077 4040 -4039 0
4080 4077 4040 -4039 0
-4080 -4077 -4040 4039 0
4080 4077 -4040 4039 0
4080 -4077 4040 4039 0
4080 -4077 -4040 -4039 0
-4079 4077 4040 0
-4079 4077 4039 0
-4079 4040 4039 0
4079 -4077 -4040 0
4079 -4077 -4039 0
4079 -4040 -4039 0
-4082 4079 4041 4040 0
-4082 4079 -4041 -4040 0
-4082 -4079 4041 -4040 0
4082 4079 4041 -4040 0
-4082 -4079 -4041 4040 0
4082 4079 -4041 4040 0
4082 -4079 4041 4040 0
4082 -4079 -4041 -4040 0
-4081 4079 4041 0
-4081 4079 4040 0
-4081 4041 4040 0
4081 -4079 -4041 0
4081 -4079 -4040 0
4081 -4041 -4040 0
-4084 4081 4042 4041 0
-4084 4081 -4042 -4041 0
-4084 -4081 4042 -4041 0
4084 4081 4042 -4041 0
-4084 -4081 -4042 4041 0
4084 4081 -4042 4041 0
4084 -4081 4042 4041 0
4084 -4081 -4042 -4041 0
-4083 4081 4042 0
-4083 4081 4041 0
-4083 4042 4041 0
4083 -4081 -4042 0
4083 -4081 -4041 0
4083 -4042 -4041 0
-4086 4083 4043 4042 0
-4086 4083 -4043 -4042 0
-4086 -4083 4043 -4042 0
4086 4083 4043 -4042 0
-4086 -4083 -4043 4042 0
4086 4083 -4043 4042 0
4086 -4083 4043 4042 0
4086 -4083 -4043 -4042 0
-4085 4083 4043 0
-4085 4083 4042 0
-4085 4043 4042 0
4085 -4083 -4043 0
4085 -4083 -4042 0
4085 -4043 -4042 0
-4088 4085 4044 4043 0
-4088 4085 -4044 -4043 0
-4088 -4085 4044 -4043 0
4088 4085 4044 -4043 0
-4088 -4085 -4044 4043 0
4088 4085 -4044 4043 0
4088 -4085 4044 4043 0
4088 -4085 -4044 -4043 0
-4087 4085 4044 0
-4087 4085 4043 0
-4087 4044 4043 0
4087 -4085 -4044 0
4087 -4085 -4043 0
4087 -4044 -4043 0
-4090 4087 4045 4044 0
-4090 4087 -4045 -4044 0
-4090 -4087 4045 -4044 0
4090 4087 4045 -4044 0
-4090 -4087 -4045 4044 0
4090 4087 -4045 4044 0
4090 -4087 4045 4044 0
4090 -4087 -4045 -4044 0
-4089 4087 4045 0
-4089 4087 4044 0
-4089 4045 4044 0
4089 -4087 -4045 0
4089 -4087 -4044 0
4089 -4045 -4044 0
-4092 4089 4046 4045 0
-4092 4089 -4046 -4045 0
-4092 -4089 4046 -4045 0
4092 4089 4046 -4045 0
-4092 -4089 -4046 4045 0
4092 4089 -4046 4045 0
4092 -4089 4046 4045 0
4092 -4089 -4046 -4045 0
-4091 4089 4046 0
-4091 4089 4045 0
-4091 4046 4045 0
4091 -4089 -4046 0
4091 -4089 -4045 0
4091 -4046 -4045 0
-4094 4091 4047 4046 0
-4094 4091 -4047 -4046 0
-4094 -4091 4047 -4046 0
4094 4091 4047 -4046 0
-4094 -4091 -4047 4046 0
4094 4091 -4047 4046 0
4094 -4091 4047 4046 0
4094 -4091 -4047 -4046 0
-4093 4091 4047 0
-4093 4091 4046 0
-4093 4047 4046 0
4093 -4091 -4047 0
4093 -4091 -4046 0
4093 -4047 -4046 0
-4096 4093 4048 4047 0
-4096 4093 -4048 -4047 0
-4096 -4093 4048 -4047 0
4096 4093 4048 -4047 0
-4096 -4093 -4048 4047 0
4096 4093 -4048 4047 0
4096 -4093 4048 4047 0
4096 -4093 -4048 -4047 0
-4095 4093 4048 0
-4095 4093 4047 0
-4095 4048 4047 0
4095 -4093 -4048 0
4095 -4093 -4047 0
4095 -4048 -4047 0
-4098 4095 4049 4048 0
-4098 4095 -4049 -4048 0
-4098 -4095 4049 -4048 0
4098 4095 4049 -4048 0
-4098 -4095 -4049 4048 0
4098 4095 -4049 4048 0
4098 -4095 4049 4048 0
4098 -4095 -4049 -4048 0
-4097 4095 4049 0
-4097 4095 4048 0
-4097 4049 4048 0
4097 -4095 -4049 0
4097 -4095 -4048 0
4097 -4049 -4048 0
-4100 4097 4050 4049 0
-4100 4097 -4050 -4049 0
-4100 -4097 4050 -4049 0
4100 4097 4050 -4049 0
-4100 -4097 -4050 4049 0
4100 4097 -4050 4049 0
4100 -4097 4050 4049 0
4100 -4097 -4050 -4049 0
-4099 4097 4050 0
-4099 4097 4049 0
-4099 4050 4049 0
4099 -4097 -4050 0
4099 -4097 -4049 0
4099 -4050 -4049 0
-4102 4099 4051 4050 0
-4102 4099 -4051 -4050 0
-4102 -4099 4051 -4050 0
4102 4099 4051 -4050 0
-4102 -4099 -4051 4050 0
4102 4099 -4051 4050 0
4102 -4099 4051 4050 0
4102 -4099 -4051 -4050 0
-4101 4099 4051 0
-4101 4099 4050 0
-4101 4051 4050 0
4101 -4099 -4051 0
4101 -4099 -4050 0
4101 -4051 -4050 0
-4104 4101 4052 4051 0
-4104 4101 -4052 -4051 0
-4104 -4101 4052 -4051 0
4104 4101 4052 -4051 0
-4104 -4101 -4052 4051 0
4104 4101 -4052 4051 0
4104 -4101 4052 4051 0
4104 -4101 -4052 -4051 0
-4103 4101 4052 0
-4103 4101 4051 0
-4103 4052 4051 0
4103 -4101 -4052 0
4103 -4101 -4051 0
4103 -4052 -4051 0
-4106 4103 4053 4052 0
-4106 4103 -4053 -4052 0
-4106 -4103 4053 -4052 0
4106 4103 4053 -4052 0
-4106 -4103 -4053 4052 0
4106 4103 -4053 4052 0
4106 -4103 4053 4052 0
4106 -4103 -4053 -4052 0
-4105 4103 4053 0
-4105 4103 4052 0
-4105 4053 4052 0
4105 -4103 -4053 0
4105 -4103 -4052 0
4105 -4053 -4052 0
-4108 4105 4054 4053 0
-4108 4105 -4054 -4053 0
-4108 -4105 4054 -4053 0
4108 4105 4054 -4053 0
-4108 -4105 -4054 4053 0
4108 4105 -4054 4053 0
4108 -4105 4054 4053 0
4108 -4105 -4054 -4053 0
-4107 4105 4054 0
-4107 4105 4053 0
-4107 4054 4053 0
4107 -4105 -4054 0
4107 -4105 -4053 0
4107 -4054 -4053 0
-4110 4107 4055 4054 0
-4110 4107 -4055 -4054 0
-4110 -4107 4055 -4054 0
4110 4107 4055 -4054 0
-4110 -4107 -4055 4054 0
4110 4107 -4055 4054 0
4110 -4107 4055 4054 0
4110 -4107 -4055 -4054 0
-4109 4107 4055 0
-4109 4107 4054 0
-4109 4055 4054 0
4109 -4107 -4055 0
4109 -4107 -4054 0
4109 -4055 -4054 0
-4112 4109 4056 4055 0
-4112 4109 -4056 -4055 0
-4112 -4109 4056 -4055 0
4112 4109 4056 -4055 0
-4112 -4109 -4056 4055 0
4112 4109 -4056 4055 0
4112 -4109 4056 4055 0
4112 -4109 -4056 -4055 0
-4111 4109 4056 0
-4111 4109 4055 0
-4111 4056 4055 0
4111 -4109 -4056 0
4111 -4109 -4055 0
4111 -4056 -4055 0
-4114 4111 4057 4056 0
-4114 4111 -4057 -4056 0
-4114 -4111 4057 -4056 0
4114 4111 4057 -4056 0
-4114 -4111 -4057 4056 0
4114 4111 -4057 4056 0
4114 -4111 4057 4056 0
4114 -4111 -4057 -4056 0
-4113 4111 4057 0
-4113 4111 4056 0
-4113 4057 4056 0
4113 -4111 -4057 0
4113 -4111 -4056 0
4113 -4057 -4056 0
-4116 4113 4058 4057 0
-4116 4113 -4058 -4057 0
-4116 -4113 4058 -4057 0
4116 4113 4058 -4057 0
-4116 -4113 -4058 4057 0
4116 4113 -4058 4057 0
4116 -4113 4058 4057 0
4116 -4113 -4058 -4057 0
-4115 4113 4058 0
-4115 4113 4057 0
-4115 4058 4057 0
4115 -4113 -4058 0
4115 -4113 -4057 0
4115 -4058 -4057 0
-4118 4115 4059 4058 0
-4118 4115 -4059 -4058 0
-4118 -4115 4059 -4058 0
4118 4115 4059 -4058 0
-4118 -4115 -4059 4058 0
4118 4115 -4059 4058 0
4118 -4115 4059 4058 0
4118 -4115 -4059 -4058 0
-4117 4115 4059 0
-4117 4115 4058 0
-4117 4059 4058 0
4117 -4115 -4059 0
4117 -4115 -4058 0
4117 -4059 -4058 0
-4120 4117 4060 4059 0
-4120 4117 -4060 -4059 0
-4120 -4117 4060 -4059 0
4120 4117 4060 -4059 0
-4120 -4117 -4060 4059 0
4120 4117 -4060 4059 0
4120 -4117 4060 4059 0
4120 -4117 -4060 -4059 0
-4119 4117 4060 0
-4119 4117 4059 0
-4119 4060 4059 0
4119 -4117 -4060 0
4119 -4117 -4059 0
4119 -4060 -4059 0
-4122 4119 4061 4060 0
-4122 4119 -4061 -4060 0
-4122 -4119 4061 -4060 0
4122 4119 4061 -4060 0
-4122 -4119 -4061 4060 0
4122 4119 -4061 4060 0
4122 -4119 4061 4060 0
4122 -4119 -4061 -4060 0
-4121 4119 4061 0
-4121 4119 4060 0
-4121 4061 4060 0
4121 -4119 -4061 0
4121 -4119 -4060 0
4121 -4061 -4060 0
-4124 4121 4062 4061 0
-4124 4121 -4062 -4061 0
-4124 -4121 4062 -4061 0
4124 4121 4062 -4061 0
-4124 -4121 -4062 4061 0
4124 4121 -4062 4061 0
4124 -4121 4062 4061 0
4124 -4121 -4062 -4061 0
-4123 4121 4062 0
-4123 4121 4061 0
-4123 4062 4061 0
4123 -4121 -4062 0
4123 -4121 -4061 0
4123 -4062 -4061 0
-4126 4123 4063 4062 0
-4126 4123 -4063 -4062 0
-4126 -4123 4063 -4062 0
4126 4123 4063 -4062 0
-4126 -4123 -4063 4062 0
4126 4123 -4063 4062 0
4126 -4123 4063 4062 0
4126 -4123 -4063 -4062 0
-4125 4123 4063 0
-4125 4123 4062 0
-4125 4063 4062 0
4125 -4123 -4063 0
4125 -4123 -4062 0
4125 -4063 -4062 0
-4128 4125 4064 4063 0
-4128 4125 -4064 -4063 0
-4128 -4125 4064 -4063 0
4128 4125 4064 -4063 0
-4128 -4125 -4064 4063 0
4128 4125 -4064 4063 0
4128 -4125 4064 4063 0
4128 -4125 -4064 -4063 0
-4127 4125 4064 0
-4127 4125 4063 0
-4127 4064 4063 0
4127 -4125 -4064 0
4127 -4125 -4063 0
4127 -4064 -4063 0
-4130 4127 4064 0
4130 -4127 4064 0
4130 4127 -4064 0
-4130 -4127 -4064 0
-4129 4127 0
-4129 4064 0
4129 -4127 -4064 0
-4066 4132 0
4066 -4132 0
-4131 0
4068 4131 -4134 0
-4068 -4131 -4134 0
-4068 4131 4134 0
4068 -4131 4134 0
-4133 4131 0
-4133 4068 0
4133 -4131 -4068 0
-4136 4133 4070 4033 0
-4136 4133 -4070 -4033 0
-4136 -4133 4070 -4033 0
4136 4133 4070 -4033 0
-4136 -4133 -4070 4033 0
4136 4133 -4070 4033 0
4136 -4133 4070 4033 0
4136 -4133 -4070 -4033 0
-4135 4133 4070 0
-4135 4133 4033 0
-4135 4070 4033 0
4135 -4133 -4070 0
4135 -4133 -4033 0
4135 -4070 -4033 0
-4138 4135 4072 4034 0
-4138 4135 -4072 -4034 0
-4138 -4135 4072 -4034 0
4138 4135 4072 -4034 0
-4138 -4135 -4072 4034 0
4138 4135 -4072 4034 0
4138 -4135 4072 4034 0
4138 -4135 -4072 -4034 0
-4137 4135 4072 0
-4137 4135 4034 0
-4137 4072 4034 0
4137 -4135 -4072 0
4137 -4135 -4034 0
4137 -4072 -4034 0
-4140 4137 4074 4035 0
-4140 4137 -4074 -4035 0
-4140 -4137 4074 -4035 0
4140 4137 4074 -4035 0
-4140 -4137 -4074 4035 0
4140 4137 -4074 4035 0
4140 -4137 4074 4035 0
4140 -4137 -4074 -4035 0
-4139 4137 4074 0
-4139 4137 4035 0
-4139 4074 4035 0
4139 -4137 -4074 0
4139 -4137 -4035 0
4139 -4074 -4035 0
-4142 4139 4076 4036 0
-4142 4139 -4076 -4036 0
-4142 -4139 4076 -4036 0
4142 4139 4076 -4036 0
-4142 -4139 -4076 4036 0
4142 4139 -4076 4036 0
4142 -4139 4076 4036 0
4142 -4139 -4076 -4036 0
-4141 4139 4076 0
-4141 4139 4036 0
-4141 4076 4036 0
4141 -4139 -4076 0
4141 -4139 -4036 0
4141 -4076 -4036 0
-4144 4141 4078 4037 0
-4144 4141 -4078 -4037 0
-4144 -4141 4078 -4037 0
4144 4141 4078 -4037 0
-4144 -4141 -4078 4037 0
4144 4141 -4078 4037 0
4144 -4141 4078 4037 0
4144 -4141 -4078 -4037 0
-4143 4141 4078 0
-4143 4141 4037 0
-4143 4078 4037 0
4143 -4141 -4078 0
4143 -4141 -4037 0
4143 -4078 -4037 0
-4146 4143 4080 4038 0
-4146 4143 -4080 -4038 0
-4146 -4143 4080 -4038 0
4146 4143 4080 -4038 0
-4146 -4143 -4080 4038 0
4146 4143 -4080 4038 0
4146 -4143 4080 4038 0
4146 -4143 -4080 -4038 0
-4145 4143 4080 0
-4145 4143 4038 0
-4145 4080 4038 0
4145 -4143 -4080 0
4145 -4143 -4038 0
4145 -4080 -4038 0
-4148 4145 4082 4039 0
-4148 4145 -4082 -4039 0
-4148 -4145 4082 -4039 0
4148 4145 4082 -4039 0
-4148 -4145 -4082 4039 0
4148 4145 -4082 4039 0
4148 -4145 4082 4039 0
4148 -4145 -4082 -4039 0
-4147 4145 4082 0
-4147 4145 4039 0
-4147 4082 4039 0
4147 -4145 -4082 0
4147 -4145 -4039 0
4147 -4082 -4039 0
-4150 4147 4084 4040 0
-4150 4147 -4084 -4040 0
-4150 -4147 4084 -4040 0
4150 4147 4084 -4040 0
-4150 -4147 -4084 4040 0
4150 4147 -4084 4040 0
4150 -4147 4084 4040 0
4150 -4147 -4084 -4040 0
-4149 4147 4084 0
-4149 4147 4040 0
-4149 4084 4040 0
4149 -4147 -4084 0
4149 -4147 -4040 0
4149 -4084 -4040 0
-4152 4149 4086 4041 0
-4152 4149 -4086 -4041 0
-4152 -4149 4086 -4041 0
4152 4149 4086 -4041 0
-4152 -4149 -4086 4041 0
4152 4149 -4086 4041 0
4152 -4149 4086 4041 0
4152 -4149 -4086 -4041 0
-4151 4149 4086 0
-4151 4149 4041 0
-4151 4086 4041 0
4151 -4149 -4086 0
4151 -4149 -4041 0
4151 -4086 -4041 0
-4154 4151 4088 4042 0
-4154 4151 -4088 -4042 0
-4154 -4151 4088 -4042 0
4154 4151 4088 -4042 0
-4154 -4151 -4088 4042 0
4154 4151 -4088 4042 0
4154 -4151 4088 4042 0
4154 -4151 -4088 -4042 0
-4153 4151 4088 0
-4153 4151 4042 0
-4153 4088 4042 0
4153 -4151 -4088 0
4153 -4151 -4042 0
4153 -4088 -4042 0
-4156 4153 4090 4043 0
-4156 4153 -4090 -4043 0
-4156 -4153 4090 -4043 0
4156 4153 4090 -4043 0
-4156 -4153 -4090 4043 0
4156 4153 -4090 4043 0
4156 -4153 4090 4043 0
4156 -4153 -4090 -4043 0
-4155 4153 4090 0
-4155 4153 4043 0
-4155 4090 4043 0
4155 -4153 -4090 0
4155 -4153 -4043 0
4155 -4090 -4043 0
-4158 4155 4092 4044 0
-4158 4155 -4092 -4044 0
-4158 -4155 4092 -4044 0
4158 4155 4092 -4044 0
-4158 -4155 -4092 4044 0
4158 4155 -4092 4044 0
4158 -4155 4092 4044 0
4158 -4155 -4092 -4044 0
-4157 4155 4092 0
-4157 4155 4044 0
-4157 4092 4044 0
4157 -4155 -4092 0
4157 -4155 -4044 0
4157 -4092 -4044 0
-4160 4157 4094 4045 0
-4160 4157 -4094 -4045 0
-4160 -4157 4094 -4045 0
4160 4157 4094 -4045 0
-4160 -4157 -4094 4045 0
4160 4157 -4094 4045 0
4160 -4157 4094 4045 0
4160 -4157 -4094 -4045 0
-4159 4157 4094 0
-4159 4157 4045 0
-4159 4094 4045 0
4159 -4157 -4094 0
4159 -4157 -4045 0
4159 -4094 -4045 0
-4162 4159 4096 4046 0
-4162 4159 -4096 -4046 0
-4162 -4159 4096 -4046 0
4162 4159 4096 -4046 0
-4162 -4159 -4096 4046 0
4162 4159 -4096 4046 0
4162 -4159 4096 4046 0
4162 -4159 -4096 -4046 0
-4161 4159 4096 0
-4161 4159 4046 0
-4161 4096 4046 0
4161 -4159 -4096 0
4161 -4159 -4046 0
4161 -4096 -4046 0
-4164 4161 4098 4047 0
-4164 4161 -4098 -4047 0
-4164 -4161 4098 -4047 0
4164 4161 4098 -4047 0
-4164 -4161 -4098 4047 0
4164 4161 -4098 4047 0
4164 -4161 4098 4047 0
4164 -4161 -4098 -4047 0
-4163 4161 4098 0
-4163 4161 4047 0
-4163 4098 4047 0
4163 -4161 -4098 0
4163 -4161 -4047 0
4163 -4098 -4047 0
-4166 4163 4100 4048 0
-4166 4163 -4100 -4048 0
-4166 -4163 4100 -4048 0
4166 4163 4100 -4048 0
-4166 -4163 -4100 4048 0
4166 4163 -4100 4048 0
4166 -4163 4100 4048 0
4166 -4163 -4100 -4048 0
-4165 4163 4100 0
-4165 4163 4048 0
-4165 4100 4048 0
4165 -4163 -4100 0
4165 -4163 -4048 0
4165 -4100 -4048 0
-4168 4165 4102 4049 0
-4168 4165 -4102 -4049 0
-4168 -4165 4102 -4049 0
4168 4165 4102 -4049 0
-4168 -4165 -4102 4049 0
4168 4165 -4102 4049 0
4168 -4165 4102 4049 0
4168 -4165 -4102 -4049 0
-4167 4165 4102 0
-4167 4165 4049 0
-4167 4102 4049 0
4167 -4165 -4102 0
4167 -4165 -4049 0
4167 -4102 -4049 0
-4170 4167 4104 4050 0
-4170 4167 -4104 -4050 0
-4170 -4167 4104 -4050 0
4170 4167 4104 -4050 0
-4170 -4167 -4104 4050 0
4170 4167 -4104 4050 0
4170 -4167 4104 4050 0
4170 -4167 -4104 -4050 0
-4169 4167 4104 0
-4169 4167 4050 0
-4169 4104 4050 0
4169 -4167 -4104 0
4169 -4167 -4050 0
4169 -4104 -4050 0
-4172 4169 4106 4051 0
-4172 4169 -4106 -4051 0
-4172 -4169 4106 -4051 0
4172 4169 4106 -4051 0
-4172 -4169 -4106 4051 0
4172 4169 -4106 4051 0
4172 -4169 4106 4051 0
4172 -4169 -4106 -4051 0
-4171 4169 4106 0
-4171 4169 4051 0
-4171 4106 4051 0
4171 -4169 -4106 0
4171 -4169 -4051 0
4171 -4106 -4051 0
-4174 4171 4108 4052 0
-4174 4171 -4108 -4052 0
-4174 -4171 4108 -4052 0
4174 4171 4108 -4052 0
-4174 -4171 -4108 4052 0
4174 4171 -4108 4052 0
4174 -4171 4108 4052 0
4174 -4171 -4108 -4052 0
-4173 4171 4108 0
-4173 4171 4052 0
-4173 4108 4052 0
4173 -4171 -4108 0
4173 -4171 -4052 0
4173 -4108 -4052 0
-4176 4173 4110 4053 0
-4176 4173 -4110 -4053 0
-4176 -4173 4110 -4053 0
4176 4173 4110 -4053 0
-4176 -4173 -4110 4053 0
4176 4173 -4110 4053 0
4176 -4173 4110 4053 0
4176 -4173 -4110 -4053 0
-4175 4173 4110 0
-4175 4173 4053 0
-4175 4110 4053 0
4175 -4173 -4110 0
4175 -4173 -4053 0
4175 -4110 -4053 0
-4178 4175 4112 4054 0
-4178 4175 -4112 -4054 0
-4178 -4175 4112 -4054 0
4178 4175 4112 -4054 0
-4178 -4175 -4112 4054 0
4178 4175 -4112 4054 0
4178 -4175 4112 4054 0
4178 -4175 -4112 -4054 0
-4177 4175 4112 0
-4177 4175 4054 0
-4177 4112 4054 0
4177 -4175 -4112 0
4177 -4175 -4054 0
4177 -4112 -4054 0
-4180 4177 4114 4055 0
-4180 4177 -4114 -4055 0
-4180 -4177 4114 -4055 0
4180 4177 4114 -4055 0
-4180 -4177 -4114 4055 0
4180 4177 -4114 4055 0
4180 -4177 4114 4055 0
4180 -4177 -4114 -4055 0
-4179 4177 4114 0
-4179 4177 4055 0
-4179 4114 4055 0
4179 -4177 -4114 0
4179 -4177 -4055 0
4179 -4114 -4055 0
-4182 4179 4116 4056 0
-4182 4179 -4116 -4056 0
-4182 -4179 4116 -4056 0
4182 4179 4116 -4056 0
-4182 -4179 -4116 4056 0
4182 4179 -4116 4056 0
4182 -4179 4116 4056 0
4182 -4179 -4116 -4056 0
-4181 4179 4116 0
-4181 4179 4056 0
-4181 4116 4056 0
4181 -4179 -4116 0
4181 -4179 -4056 0
4181 -4116 -4056 0
-4184 4181 4118 4057 0
-4184 4181 -4118 -4057 0
-4184 -4181 4118 -4057 0
4184 4181 4118 -4057 0
-4184 -4181 -4118 4057 0
4184 4181 -4118 4057 0
4184 -4181 4118 4057 0
4184 -4181 -4118 -4057 0
-4183 4181 4118 0
-4183 4181 4057 0
-4183 4118 4057 0
4183 -4181 -4118 0
4183 -4181 -4057 0
4183 -4118 -4057 0
-4186 4183 4120 4058 0
-4186 4183 -4120 -4058 0
-4186 -4183 4120 -4058 0
4186 4183 4120 -4058 0
-4186 -4183 -4120 4058 0
4186 4183 -4120 4058 0
4186 -4183 4120 4058 0
4186 -4183 -4120 -4058 0
-4185 4183 4120 0
-4185 4183 4058 0
-4185 4120 4058 0
4185 -4183 -4120 0
4185 -4183 -4058 0
4185 -4120 -4058 0
-4188 4185 4122 4059 0
-4188 4185 -4122 -4059 0
-4188 -4185 4122 -4059 0
4188 4185 4122 -4059 0
-4188 -4185 -4122 4059 0
4188 4185 -4122 4059 0
4188 -4185 4122 4059 0
4188 -4185 -4122 -4059 0
-4187 4185 4122 0
-4187 4185 4059 0
-4187 4122 4059 0
4187 -4185 -4122 0
4187 -4185 -4059 0
4187 -4122 -4059 0
-4190 4187 4124 4060 0
-4190 4187 -4124 -4060 0
-4190 -4187 4124 -4060 0
4190 4187 4124 -4060 0
-4190 -4187 -4124 4060 0
4190 4187 -4124 4060 0
4190 -4187 4124 4060 0
4190 -4187 -4124 -4060 0
-4189 4187 4124 0
-4189 4187 4060 0
-4189 4124 4060 0
4189 -4187 -4124 0
4189 -4187 -4060 0
4189 -4124 -4060 0
-4192 4189 4126 4061 0
-4192 4189 -4126 -4061 0
-4192 -4189 4126 -4061 0
4192 4189 4126 -4061 0
-4192 -4189 -4126 4061 0
4192 4189 -4126 4061 0
4192 -4189 4126 4061 0
4192 -4189 -4126 -4061 0
-4191 4189 4126 0
-4191 4189 4061 0
-4191 4126 4061 0
4191 -4189 -4126 0
4191 -4189 -4061 0
4191 -4126 -4061 0
-4194 4191 4128 4062 0
-4194 4191 -4128 -4062 0
-4194 -4191 4128 -4062 0
4194 4191 4128 -4062 0
-4194 -4191 -4128 4062 0
4194 4191 -4128 4062 0
4194 -4191 4128 4062 0
4194 -4191 -4128 -4062 0
-4193 4191 4128 0
-4193 4191 4062 0
-4193 4128 4062 0
4193 -4191 -4128 0
4193 -4191 -4062 0
4193 -4128 -4062 0
-4196 4193 4130 4063 0
-4196 4193 -4130 -4063 0
-4196 -4193 4130 -4063 0
4196 4193 4130 -4063 0
-4196 -4193 -4130 4063 0
4196 4193 -4130 4063 0
4196 -4193 4130 4063 0
4196 -4193 -4130 -4063 0
-4195 4193 4130 0
-4195 4193 4063 0
-4195 4130 4063 0
4195 -4193 -4130 0
4195 -4193 -4063 0
4195 -4130 -4063 0
-4198 4195 4129 4064 0
-4198 4195 -4129 -4064 0
-4198 -4195 4129 -4064 0
4198 4195 4129 -4064 0
-4198 -4195 -4129 4064 0
4198 4195 -4129 4064 0
4198 -4195 4129 4064 0
4198 -4195 -4129 -4064 0
-4197 4195 4129 0
-4197 4195 4064 0
-4197 4129 4064 0
4197 -4195 -4129 0
4197 -4195 -4064 0
4197 -4129 -4064 0
-4132 4200 0
4132 -4200 0
-4199 0
4134 4199 -4202 0
-4134 -4199 -4202 0
-4134 4199 4202 0
4134 -4199 4202 0
-4201 4199 0
-4201 4134 0
4201 -4199 -4134 0
4136 4201 -4204 0
-4136 -4201 -4204 0
-4136 4201 4204 0
4136 -4201 4204 0
-4203 4201 0
-4203 4136 0
4203 -4201 -4136 0
-4206 4203 4138 4033 0
-4206 4203 -4138 -4033 0
-4206 -4203 4138 -4033 0
4206 4203 4138 -4033 0
-4206 -4203 -4138 4033 0
4206 4203 -4138 4033 0
4206 -4203 4138 4033 0
4206 -4203 -4138 -4033 0
-4205 4203 4138 0
-4205 4203 4033 0
-4205 4138 4033 0
4205 -4203 -4138 0
4205 -4203 -4033 0
4205 -4138 -4033 0
-4208 4205 4140 4034 0
-4208 4205 -4140 -4034 0
-4208 -4205 4140 -4034 0
4208 4205 4140 -4034 0
-4208 -4205 -4140 4034 0
4208 4205 -4140 4034 0
4208 -4205 4140 4034 0
4208 -4205 -4140 -4034 0
-4207 4205 4140 0
-4207 4205 4034 0
-4207 4140 4034 0
4207 -4205 -4140 0
4207 -4205 -4034 0
4207 -4140 -4034 0
-4210 4207 4142 4035 0
-4210 4207 -4142 -4035 0
-4210 -4207 4142 -4035 0
4210 4207 4142 -4035 0
-4210 -4207 -4142 4035 0
4210 4207 -4142 4035 0
4210 -4207 4142 4035 0
4210 -4207 -4142 -4035 0
-4209 4207 4142 0
-4209 4207 4035 0
-4209 4142 4035 0
4209 -4207 -4142 0
4209 -4207 -4035 0
4209 -4142 -4035 0
-4212 4209 4144 4036 0
-4212 4209 -4144 -4036 0
-4212 -4209 4144 -4036 0
4212 4209 4144 -4036 0
-4212 -4209 -4144 4036 0
4212 4209 -4144 4036 0
4212 -4209 4144 4036 0
4212 -4209 -4144 -4036 0
-4211 4209 4144 0
-4211 4209 4036 0
-4211 4144 4036 0
4211 -4209 -4144 0
4211 -4209 -4036 0
4211 -4144 -4036 0
-4214 4211 4146 4037 0
-4214 4211 -4146 -4037 0
-4214 -4211 4146 -4037 0
4214 4211 4146 -4037 0
-4214 -4211 -4146 4037 0
4214 4211 -4146 4037 0
4214 -4211 4146 4037 0
4214 -4211 -4146 -4037 0
-4213 4211 4146 0
-4213 4211 4037 0
-4213 4146 4037 0
4213 -4211 -4146 0
4213 -4211 -4037 0
4213 -4146 -4037 0
-4216 4213 4148 4038 0
-4216 4213 -4148 -4038 0
-4216 -4213 4148 -4038 0
4216 4213 4148 -4038 0
-4216 -4213 -4148 4038 0
4216 4213 -4148 4038 0
4216 -4213 4148 4038 0
4216 -4213 -4148 -4038 0
-4215 4213 4148 0
-4215 4213 4038 0
-4215 4148 4038 0
4215 -4213 -4148 0
4215 -4213 -4038 0
4215 -4148 -4038 0
-4218 4215 4150 4039 0
-4218 4215 -4150 -4039 0
-4218 -4215 4150 -4039 0
4218 4215 4150 -4039 0
-4218 -4215 -4150 4039 0
4218 4215 -4150 4039 0
4218 -4215 4150 4039 0
4218 -4215 -4150 -4039 0
-4217 4215 4150 0
-4217 4215 4039 0
-4217 4150 4039 0
4217 -4215 -4150 0
4217 -4215 -4039 0
4217 -4150 -4039 0
-4220 4217 4152 4040 0
-4220 4217 -4152 -4040 0
-4220 -4217 4152 -4040 0
4220 4217 4152 -4040 0
-4220 -4217 -4152 4040 0
4220 4217 -4152 4040 0
4220 -4217 4152 4040 0
4220 -4217 -4152 -4040 0
-4219 4217 4152 0
-4219 4217 4040 0
-4219 4152 4040 0
4219 -4217 -4152 0
4219 -4217 -4040 0
4219 -4152 -4040 0
-4222 4219 4154 4041 0
-4222 4219 -4154 -4041 0
-4222 -4219 4154 -4041 0
4222 4219 4154 -4041 0
-4222 -4219 -4154 4041 0
4222 4219 -4154 4041 0
4222 -4219 4154 4041 0
4222 -4219 -4154 -4041 0
-4221 4219 4154 0
-4221 4219 4041 0
-4221 4154 4041 0
4221 -4219 -4154 0
4221 -4219 -4041 0
4221 -4154 -4041 0
-4224 4221 4156 4042 0
-4224 4221 -4156 -4042 0
-4224 -4221 4156 -4042 0
4224 4221 4156 -4042 0
-4224 -4221 -4156 4042 0
4224 4221 -4156 4042 0
4224 -4221 4156 4042 0
4224 -4221 -4156 -4042 0
-4223 4221 4156 0
-4223 4221 4042 0
-4223 4156 4042 0
4223 -4221 -4156 0
4223 -4221 -4042 0
4223 -4156 -4042 0
-4226 4223 4158 4043 0
-4226 4223 -4158 -4043 0
-4226 -4223 4158 -4043 0
4226 4223 4158 -4043 0
-4226 -4223 -4158 4043 0
4226 4223 -4158 4043 0
4226 -4223 4158 4043 0
4226 -4223 -4158 -4043 0
-4225 4223 4158 0
-4225 4223 4043 0
-4225 4158 4043 0
4225 -4223 -4158 0
4225 -4223 -4043 0
4225 -4158 -4043 0
-4228 4225 4160 4044 0
-4228 4225 -4160 -4044 0
-4228 -4225 4160 -4044 0
4228 4225 4160 -4044 0
-4228 -4225 -4160 4044 0
4228 4225 -4160 4044 0
4228 -4225 4160 4044 0
4228 -4225 -4160 -4044 0
-4227 4225 4160 0
-4227 4225 4044 0
-4227 4160 4044 0
4227 -4225 -4160 0
4227 -4225 -4044 0
4227 -4160 -4044 0
-4230 4227 4162 4045 0
-4230 4227 -4162 -4045 0
-4230 -4227 4162 -4045 0
4230 4227 4162 -4045 0
-4230 -4227 -4162 4045 0
4230 4227 -4162 4045 0
4230 -4227 4162 4045 0
4230 -4227 -4162 -4045 0
-4229 4227 4162 0
-4229 4227 4045 0
-4229 4162 4045 0
4229 -4227 -4162 0
4229 -4227 -4045 0
4229 -4162 -4045 0
-4232 4229 4164 4046 0
-4232 4229 -4164 -4046 0
-4232 -4229 4164 -4046 0
4232 4229 4164 -4046 0
-4232 -4229 -4164 4046 0
4232 4229 -4164 4046 0
4232 -4229 4164 4046 0
4232 -4229 -4164 -4046 0
-4231 4229 4164 0
-4231 4229 4046 0
-4231 4164 4046 0
4231 -4229 -4164 0
4231 -4229 -4046 0
4231 -4164 -4046 0
-4234 4231 4166 4047 0
-4234 4231 -4166 -4047 0
-4234 -4231 4166 -4047 0
4234 4231 4166 -4047 0
-4234 -4231 -4166 4047 0
4234 4231 -4166 4047 0
4234 -4231 4166 4047 0
4234 -4231 -4166 -4047 0
-4233 4231 4166 0
-4233 4231 4047 0
-4233 4166 4047 0
4233 -4231 -4166 0
4233 -4231 -4047 0
4233 -4166 -4047 0
-4236 4233 4168 4048 0
-4236 4233 -4168 -4048 0
-4236 -4233 4168 -4048 0
4236 4233 4168 -4048 0
-4236 -4233 -4168 4048 0
4236 4233 -4168 4048 0
4236 -4233 4168 4048 0
4236 -4233 -4168 -4048 0
-4235 4233 4168 0
-4235 4233 4048 0
-4235 4168 4048 0
4235 -4233 -4168 0
4235 -4233 -4048 0
4235 -4168 -4048 0
-4238 4235 4170 4049 0
-4238 4235 -4170 -4049 0
-4238 -4235 4170 -4049 0
4238 4235 4170 -4049 0
-4238 -4235 -4170 4049 0
4238 4235 -4170 4049 0
4238 -4235 4170 4049 0
4238 -4235 -4170 -4049 0
-4237 4235 4170 0
-4237 4235 4049 0
-4237 4170 4049 0
4237 -4235 -4170 0
4237 -4235 -4049 0
4237 -4170 -4049 0
-4240 4237 4172 4050 0
-4240 4237 -4172 -4050 0
-4240 -4237 4172 -4050 0
4240 4237 4172 -4050 0
-4240 -4237 -4172 4050 0
4240 4237 -4172 4050 0
4240 -4237 4172 4050 0
4240 -4237 -4172 -4050 0
-4239 4237 4172 0
-4239 4237 4050 0
-4239 4172 4050 0
4239 -4237 -4172 0
4239 -4237 -4050 0
4239 -4172 -4050 0
-4242 4239 4174 4051 0
-4242 4239 -4174 -4051 0
-4242 -4239 4174 -4051 0
4242 4239 4174 -4051 0
-4242 -4239 -4174 4051 0
4242 4239 -4174 4051 0
4242 -4239 4174 4051 0
4242 -4239 -4174 -4051 0
-4241 4239 4174 0
-4241 4239 4051 0
-4241 4174 4051 0
4241 -4239 -4174 0
4241 -4239 -4051 0
4241 -4174 -4051 0
-4244 4241 4176 4052 0
-4244 4241 -4176 -4052 0
-4244 -4241 4176 -4052 0
4244 4241 4176 -4052 0
-4244 -4241 -4176 4052 0
4244 4241 -4176 4052 0
4244 -4241 4176 4052 0
4244 -4241 -4176 -4052 0
-4243 4241 4176 0
-4243 4241 4052 0
-4243 4176 4052 0
4243 -4241 -4176 0
4243 -4241 -4052 0
4243 -4176 -4052 0
-4246 4243 4178 4053 0
-4246 4243 -4178 -4053 0
-4246 -4243 4178 -4053 0
4246 4243 4178 -4053 0
-4246 -4243 -4178 4053 0
4246 4243 -4178 4053 0
4246 -4243 4178 4053 0
4246 -4243 -4178 -4053 0
-4245 4243 4178 0
-4245 4243 4053 0
-4245 4178 4053 0
4245 -4243 -4178 0
4245 -4243 -4053 0
4245 -4178 -4053 0
-4248 4245 4180 4054 0
-4248 4245 -4180 -4054 0
-4248 -4245 4180 -4054 0
4248 4245 4180 -4054 0
-4248 -4245 -4180 4054 0
4248 4245 -4180 4054 0
4248 -4245 4180 4054 0
4248 -4245 -4180 -4054 0
-4247 4245 4180 0
-4247 4245 4054 0
-4247 4180 4054 0
4247 -4245 -4180 0
4247 -4245 -4054 0
4247 -4180 -4054 0
-4250 4247 4182 4055 0
-4250 4247 -4182 -4055 0
-4250 -4247 4182 -4055 0
4250 4247 4182 -4055 0
-4250 -4247 -4182 4055 0
4250 4247 -4182 4055 0
4250 -4247 4182 4055 0
4250 -4247 -4182 -4055 0
-4249 4247 4182 0
-4249 4247 4055 0
-4249 4182 4055 0
4249 -4247 -4182 0
4249 -4247 -4055 0
4249 -4182 -4055 0
-4252 4249 4184 4056 0
-4252 4249 -4184 -4056 0
-4252 -4249 4184 -4056 0
4252 4249 4184 -4056 0
-4252 -4249 -4184 4056 0
4252 4249 -4184 4056 0
4252 -4249 4184 4056 0
4252 -4249 -4184 -4056 0
-4251 4249 4184 0
-4251 4249 4056 0
-4251 4184 4056 0
4251 -4249 -4184 0
4251 -4249 -4056 0
4251 -4184 -4056 0
-4254 4251 4186 4057 0
-4254 4251 -4186 -4057 0
-4254 -4251 4186 -4057 0
4254 4251 4186 -4057 0
-4254 -4251 -4186 4057 0
4254 4251 -4186 4057 0
4254 -4251 4186 4057 0
4254 -4251 -4186 -4057 0
-4253 4251 4186 0
-4253 4251 4057 0
-4253 4186 4057 0
4253 -4251 -4186 0
4253 -4251 -4057 0
4253 -4186 -4057 0
-4256 4253 4188 4058 0
-4256 4253 -4188 -4058 0
-4256 -4253 4188 -4058 0
4256 4253 4188 -4058 0
-4256 -4253 -4188 4058 0
4256 4253 -4188 4058 0
4256 -4253 4188 4058 0
4256 -4253 -4188 -4058 0
-4255 4253 4188 0
-4255 4253 4058 0
-4255 4188 4058 0
4255 -4253 -4188 0
4255 -4253 -4058 0
4255 -4188 -4058 0
-4258 4255 4190 4059 0
-4258 4255 -4190 -4059 0
-4258 -4255 4190 -4059 0
4258 4255 4190 -4059 0
-4258 -4255 -4190 4059 0
4258 4255 -4190 4059 0
4258 -4255 4190 4059 0
4258 -4255 -4190 -4059 0
-4257 4255 4190 0
-4257 4255 4059 0
-4257 4190 4059 0
4257 -4255 -4190 0
4257 -4255 -4059 0
4257 -4190 -4059 0
-4260 4257 4192 4060 0
-4260 4257 -4192 -4060 0
-4260 -4257 4192 -4060 0
4260 4257 4192 -4060 0
-4260 -4257 -4192 4060 0
4260 4257 -4192 4060 0
4260 -4257 4192 4060 0
4260 -4257 -4192 -4060 0
-4259 4257 4192 0
-4259 4257 4060 0
-4259 4192 4060 0
4259 -4257 -4192 0
4259 -4257 -4060 0
4259 -4192 -4060 0
-4262 4259 4194 4061 0
-4262 4259 -4194 -4061 0
-4262 -4259 4194 -4061 0
4262 4259 4194 -4061 0
-4262 -4259 -4194 4061 0
4262 4259 -4194 4061 0
4262 -4259 4194 4061 0
4262 -4259 -4194 -4061 0
-4261 4259 4194 0
-4261 4259 4061 0
-4261 4194 4061 0
4261 -4259 -4194 0
4261 -4259 -4061 0
4261 -4194 -4061 0
-4264 4261 4196 4062 0
-4264 4261 -4196 -4062 0
-4264 -4261 4196 -4062 0
4264 4261 4196 -4062 0
-4264 -4261 -4196 4062 0
4264 4261 -4196 4062 0
4264 -4261 4196 4062 0
4264 -4261 -4196 -4062 0
-4263 4261 4196 0
-4263 4261 4062 0
-4263 4196 4062 0
4263 -4261 -4196 0
4263 -4261 -4062 0
4263 -4196 -4062 0
-4266 4263 4198 4063 0
-4266 4263 -4198 -4063 0
-4266 -4263 4198 -4063 0
4266 4263 4198 -4063 0
-4266 -4263 -4198 4063 0
4266 4263 -4198 4063 0
4266 -4263 4198 4063 0
4266 -4263 -4198 -4063 0
-4265 4263 4198 0
-4265 4263 4063 0
-4265 4198 4063 0
4265 -4263 -4198 0
4265 -4263 -4063 0
4265 -4198 -4063 0
-4268 4265 4197 4064 0
-4268 4265 -4197 -4064 0
-4268 -4265 4197 -4064 0
4268 4265 4197 -4064 0
-4268 -4265 -4197 4064 0
4268 4265 -4197 4064 0
4268 -4265 4197 4064 0
4268 -4265 -4197 -4064 0
-4267 4265 4197 0
-4267 4265 4064 0
-4267 4197 4064 0
4267 -4265 -4197 0
4267 -4265 -4064 0
4267 -4197 -4064 0
-4200 4270 0
4200 -4270 0
-4269 0
4202 4269 -4272 0
-4202 -4269 -4272 0
-4202 4269 4272 0
4202 -4269 4272 0
-4271 4269 0
-4271 4202 0
4271 -4269 -4202 0
4204 4271 -4274 0
-4204 -4271 -4274 0
-4204 4271 4274 0
4204 -4271 4274 0
-4273 4271 0
-4273 4204 0
4273 -4271 -4204 0
4206 4273 -4276 0
-4206 -4273 -4276 0
-4206 4273 4276 0
4206 -4273 4276 0
-4275 4273 0
-4275 4206 0
4275 -4273 -4206 0
-4278 4275 4208 4033 0
-4278 4275 -4208 -4033 0
-4278 -4275 4208 -4033 0
4278 4275 4208 -4033 0
-4278 -4275 -4208 4033 0
4278 4275 -4208 4033 0
4278 -4275 4208 4033 0
4278 -4275 -4208 -4033 0
-4277 4275 4208 0
-4277 4275 4033 0
-4277 4208 4033 0
4277 -4275 -4208 0
4277 -4275 -4033 0
4277 -4208 -4033 0
-4280 4277 4210 4034 0
-4280 4277 -4210 -4034 0
-4280 -4277 4210 -4034 0
4280 4277 4210 -4034 0
-4280 -4277 -4210 4034 0
4280 4277 -4210 4034 0
4280 -4277 4210 4034 0
4280 -4277 -4210 -4034 0
-4279 4277 4210 0
-4279 4277 4034 0
-4279 4210 4034 0
4279 -4277 -4210 0
4279 -4277 -4034 0
4279 -4210 -4034 0
-4282 4279 4212 4035 0
-4282 4279 -4212 -4035 0
-4282 -4279 4212 -4035 0
4282 4279 4212 -4035 0
-4282 -4279 -4212 4035 0
4282 4279 -4212 4035 0
4282 -4279 4212 4035 0
4282 -4279 -4212 -4035 0
-4281 4279 4212 0
-4281 4279 4035 0
-4281 4212 4035 0
4281 -4279 -4212 0
4281 -4279 -4035 0
4281 -4212 -4035 0
-4284 4281 4214 4036 0
-4284 4281 -4214 -4036 0
-4284 -4281 4214 -4036 0
4284 4281 4214 -4036 0
-4284 -4281 -4214 4036 0
4284 4281 -4214 4036 0
4284 -4281 4214 4036 0
4284 -4281 -4214 -4036 0
-4283 4281 4214 0
-4283 4281 4036 0
-4283 4214 4036 0
4283 -4281 -4214 0
4283 -4281 -4036 0
4283 -4214 -4036 0
-4286 4283 4216 4037 0
-4286 4283 -4216 -4037 0
-4286 -4283 4216 -4037 0
4286 4283 4216 -4037 0
-4286 -4283 -4216 4037 0
4286 4283 -4216 4037 0
4286 -4283 4216 4037 0
4286 -4283 -4216 -4037 0
-4285 4283 4216 0
-4285 4283 4037 0
-4285 4216 4037 0
4285 -4283 -4216 0
4285 -4283 -4037 0
4285 -4216 -4037 0
-4288 4285 4218 4038 0
-4288 4285 -4218 -4038 0
-4288 -4285 4218 -4038 0
4288 4285 4218 -4038 0
-4288 -4285 -4218 4038 0
4288 4285 -4218 4038 0
4288 -4285 4218 4038 0
4288 -4285 -4218 -4038 0
-4287 4285 4218 0
-4287 4285 4038 0
-4287 4218 4038 0
4287 -4285 -4218 0
4287 -4285 -4038 0
4287 -4218 -4038 0
-4290 4287 4220 4039 0
-4290 4287 -4220 -4039 0
-4290 -4287 4220 -4039 0
4290 4287 4220 -4039 0
-4290 -4287 -4220 4039 0
4290 4287 -4220 4039 0
4290 -4287 4220 4039 0
4290 -4287 -4220 -4039 0
-4289 4287 4220 0
-4289 4287 4039 0
-4289 4220 4039 0
4289 -4287 -4220 0
4289 -4287 -4039 0
4289 -4220 -4039 0
-4292 4289 4222 4040 0
-4292 4289 -4222 -4040 0
-4292 -4289 4222 -4040 0
4292 4289 4222 -4040 0
-4292 -4289 -4222 4040 0
4292 4289 -4222 4040 0
4292 -4289 4222 4040 0
4292 -4289 -4222 -4040 0
-4291 4289 4222 0
-4291 4289 4040 0
-4291 4222 4040 0
4291 -4289 -4222 0
4291 -4289 -4040 0
4291 -4222 -4040 0
-4294 4291 4224 4041 0
-4294 4291 -4224 -4041 0
-4294 -4291 4224 -4041 0
4294 4291 4224 -4041 0
-4294 -4291 -4224 4041 0
4294 4291 -4224 4041 0
4294 -4291 4224 4041 0
4294 -4291 -4224 -4041 0
-4293 4291 4224 0
-4293 4291 4041 0
-4293 4224 4041 0
4293 -4291 -4224 0
4293 -4291 -4041 0
4293 -4224 -4041 0
-4296 4293 4226 4042 0
-4296 4293 -4226 -4042 0
-4296 -4293 4226 -4042 0
4296 4293 4226 -4042 0
-4296 -4293 -4226 4042 0
4296 4293 -4226 4042 0
4296 -4293 4226 4042 0
4296 -4293 -4226 -4042 0
-4295 4293 4226 0
-4295 4293 4042 0
-4295 4226 4042 0
4295 -4293 -4226 0
4295 -4293 -4042 0
4295 -4226 -4042 0
-4298 4295 4228 4043 0
-4298 4295 -4228 -4043 0
-4298 -4295 4228 -4043 0
4298 4295 4228 -4043 0
-4298 -4295 -4228 4043 0
4298 4295 -4228 4043 0
4298 -4295 4228 4043 0
4298 -4295 -4228 -4043 0
-4297 4295 4228 0
-4297 4295 4043 0
-4297 4228 4043 0
4297 -4295 -4228 0
4297 -4295 -4043 0
4297 -4228 -4043 0
-4300 4297 4230 4044 0
-4300 4297 -4230 -4044 0
-4300 -4297 4230 -4044 0
4300 4297 4230 -4044 0
-4300 -4297 -4230 4044 0
4300 4297 -4230 4044 0
4300 -4297 4230 4044 0
4300 -4297 -4230 -4044 0
-4299 4297 4230 0
-4299 4297 4044 0
-4299 4230 4044 0
4299 -4297 -4230 0
4299 -4297 -4044 0
4299 -4230 -4044 0
-4302 4299 4232 4045 0
-4302 4299 -4232 -4045 0
-4302 -4299 4232 -4045 0
4302 4299 4232 -4045 0
-4302 -4299 -4232 4045 0
4302 4299 -4232 4045 0
4302 -4299 4232 4045 0
4302 -4299 -4232 -4045 0
-4301 4299 4232 0
-4301 4299 4045 0
-4301 4232 4045 0
4301 -4299 -4232 0
4301 -4299 -4045 0
4301 -4232 -4045 0
-4304 4301 4234 4046 0
-4304 4301 -4234 -4046 0
-4304 -4301 4234 -4046 0
4304 4301 4234 -4046 0
-4304 -4301 -4234 4046 0
4304 4301 -4234 4046 0
4304 -4301 4234 4046 0
4304 -4301 -4234 -4046 0
-4303 4301 4234 0
-4303 4301 4046 0
-4303 4234 4046 0
4303 -4301 -4234 0
4303 -4301 -4046 0
4303 -4234 -4046 0
-4306 4303 4236 4047 0
-4306 4303 -4236 -4047 0
-4306 -4303 4236 -4047 0
4306 4303 4236 -4047 0
-4306 -4303 -4236 4047 0
4306 4303 -4236 4047 0
4306 -4303 4236 4047 0
4306 -4303 -4236 -4047 0
-4305 4303 4236 0
-4305 4303 4047 0
-4305 4236 4047 0
4305 -4303 -4236 0
4305 -4303 -4047 0
4305 -4236 -4047 0
-4308 4305 4238 4048 0
-4308 4305 -4238 -4048 0
-4308 -4305 4238 -4048 0
4308 4305 4238 -4048 0
-4308 -4305 -4238 4048 0
4308 4305 -4238 4048 0
4308 -4305 4238 4048 0
4308 -4305 -4238 -4048 0
-4307 4305 4238 0
-4307 4305 4048 0
-4307 4238 4048 0
4307 -4305 -4238 0
4307 -4305 -4048 0
4307 -4238 -4048 0
-4310 4307 4240 4049 0
-4310 4307 -4240 -4049 0
-4310 -4307 4240 -4049 0
4310 4307 4240 -4049 0
-4310 -4307 -4240 4049 0
4310 4307 -4240 4049 0
4310 -4307 4240 4049 0
4310 -4307 -4240 -4049 0
-4309 4307 4240 0
-4309 4307 4049 0
-4309 4240 4049 0
4309 -4307 -4240 0
4309 -4307 -4049 0
4309 -4240 -4049 0
-4312 4309 4242 4050 0
-4312 4309 -4242 -4050 0
-4312 -4309 4242 -4050 0
4312 4309 4242 -4050 0
-4312 -4309 -4242 4050 0
4312 4309 -4242 4050 0
4312 -4309 4242 4050 0
4312 -4309 -4242 -4050 0
-4311 4309 4242 0
-4311 4309 4050 0
-4311 4242 4050 0
4311 -4309 -4242 0
4311 -4309 -4050 0
4311 -4242 -4050 0
-4314 4311 4244 4051 0
-4314 4311 -4244 -4051 0
-4314 -4311 4244 -4051 0
4314 4311 4244 -4051 0
-4314 -4311 -4244 4051 0
4314 4311 -4244 4051 0
4314 -4311 4244 4051 0
4314 -4311 -4244 -4051 0
-4313 4311 4244 0
-4313 4311 4051 0
-4313 4244 4051 0
4313 -4311 -4244 0
4313 -4311 -4051 0
4313 -4244 -4051 0
-4316 4313 4246 4052 0
-4316 4313 -4246 -4052 0
-4316 -4313 4246 -4052 0
4316 4313 4246 -4052 0
-4316 -4313 -4246 4052 0
4316 4313 -4246 4052 0
4316 -4313 4246 4052 0
4316 -4313 -4246 -4052 0
-4315 4313 4246 0
-4315 4313 4052 0
-4315 4246 4052 0
4315 -4313 -4246 0
4315 -4313 -4052 0
4315 -4246 -4052 0
-4318 4315 4248 4053 0
-4318 4315 -4248 -4053 0
-4318 -4315 4248 -4053 0
4318 4315 4248 -4053 0
-4318 -4315 -4248 4053 0
4318 4315 -4248 4053 0
4318 -4315 4248 4053 0
4318 -4315 -4248 -4053 0
-4317 4315 4248 0
-4317 4315 4053 0
-4317 4248 4053 0
4317 -4315 -4248 0
4317 -4315 -4053 0
4317 -4248 -4053 0
-4320 4317 4250 4054 0
-4320 4317 -4250 -4054 0
-4320 -4317 4250 -4054 0
4320 4317 4250 -4054 0
-4320 -4317 -4250 4054 0
4320 4317 -4250 4054 0
4320 -4317 4250 4054 0
4320 -4317 -4250 -4054 0
-4319 4317 4250 0
-4319 4317 4054 0
-4319 4250 4054 0
4319 -4317 -4250 0
4319 -4317 -4054 0
4319 -4250 -4054 0
-4322 4319 4252 4055 0
-4322 4319 -4252 -4055 0
-4322 -4319 4252 -4055 0
4322 4319 4252 -4055 0
-4322 -4319 -4252 4055 0
4322 4319 -4252 4055 0
4322 -4319 4252 4055 0
4322 -4319 -4252 -4055 0
-4321 4319 4252 0
-4321 4319 4055 0
-4321 4252 4055 0
4321 -4319 -4252 0
4321 -4319 -4055 0
4321 -4252 -4055 0
-4324 4321 4254 4056 0
-4324 4321 -4254 -4056 0
-4324 -4321 4254 -4056 0
4324 4321 4254 -4056 0
-4324 -4321 -4254 4056 0
4324 4321 -4254 4056 0
4324 -4321 4254 4056 0
4324 -4321 -4254 -4056 0
-4323 4321 4254 0
-4323 4321 4056 0
-4323 4254 4056 0
4323 -4321 -4254 0
4323 -4321 -4056 0
4323 -4254 -4056 0
-4326 4323 4256 4057 0
-4326 4323 -4256 -4057 0
-4326 -4323 4256 -4057 0
4326 4323 4256 -4057 0
-4326 -4323 -4256 4057 0
4326 4323 -4256 4057 0
4326 -4323 4256 4057 0
4326 -4323 -4256 -4057 0
-4325 4323 4256 0
-4325 4323 4057 0
-4325 4256 4057 0
4325 -4323 -4256 0
4325 -4323 -4057 0
4325 -4256 -4057 0
-4328 4325 4258 4058 0
-4328 4325 -4258 -4058 0
-4328 -4325 4258 -4058 0
4328 4325 4258 -4058 0
-4328 -4325 -4258 4058 0
4328 4325 -4258 4058 0
4328 -4325 4258 4058 0
4328 -4325 -4258 -4058 0
-4327 4325 4258 0
-4327 4325 4058 0
-4327 4258 4058 0
4327 -4325 -4258 0
4327 -4325 -4058 0
4327 -4258 -4058 0
-4330 4327 4260 4059 0
-4330 4327 -4260 -4059 0
-4330 -4327 4260 -4059 0
4330 4327 4260 -4059 0
-4330 -4327 -4260 4059 0
4330 4327 -4260 4059 0
4330 -4327 4260 4059 0
4330 -4327 -4260 -4059 0
-4329 4327 4260 0
-4329 4327 4059 0
-4329 4260 4059 0
4329 -4327 -4260 0
4329 -4327 -4059 0
4329 -4260 -4059 0
-4332 4329 4262 4060 0
-4332 4329 -4262 -4060 0
-4332 -4329 4262 -4060 0
4332 4329 4262 -4060 0
-4332 -4329 -4262 4060 0
4332 4329 -4262 4060 0
4332 -4329 4262 4060 0
4332 -4329 -4262 -4060 0
-4331 4329 4262 0
-4331 4329 4060 0
-4331 4262 4060 0
4331 -4329 -4262 0
4331 -4329 -4060 0
4331 -4262 -4060 0
-4334 4331 4264 4061 0
-4334 4331 -4264 -4061 0
-4334 -4331 4264 -4061 0
4334 4331 4264 -4061 0
-4334 -4331 -4264 4061 0
4334 4331 -4264 4061 0
4334 -4331 4264 4061 0
4334 -4331 -4264 -4061 0
-4333 4331 4264 0
-4333 4331 4061 0
-4333 4264 4061 0
4333 -4331 -4264 0
4333 -4331 -4061 0
4333 -4264 -4061 0
-4336 4333 4266 4062 0
-4336 4333 -4266 -4062 0
-4336 -4333 4266 -4062 0
4336 4333 4266 -4062 0
-4336 -4333 -4266 4062 0
4336 4333 -4266 4062 0
4336 -4333 4266 4062 0
4336 -4333 -4266 -4062 0
-4335 4333 4266 0
-4335 4333 4062 0
-4335 4266 4062 0
4335 -4333 -4266 0
4335 -4333 -4062 0
4335 -4266 -4062 0
-4338 4335 4268 4063 0
-4338 4335 -4268 -4063 0
-4338 -4335 4268 -4063 0
4338 4335 4268 -4063 0
-4338 -4335 -4268 4063 0
4338 4335 -4268 4063 0
4338 -4335 4268 4063 0
4338 -4335 -4268 -4063 0
-4337 4335 4268 0
-4337 4335 4063 0
-4337 4268 4063 0
4337 -4335 -4268 0
4337 -4335 -4063 0
4337 -4268 -4063 0
-4340 4337 4267 4064 0
-4340 4337 -4267 -4064 0
-4340 -4337 4267 -4064 0
4340 4337 4267 -4064 0
-4340 -4337 -4267 4064 0
4340 4337 -4267 4064 0
4340 -4337 4267 4064 0
4340 -4337 -4267 -4064 0
-4339 4337 4267 0
-4339 4337 4064 0
-4339 4267 4064 0
4339 -4337 -4267 0
4339 -4337 -4064 0
4339 -4267 -4064 0
-4270 4342 0
4270 -4342 0
-4341 0
4272 4341 -4344 0
-4272 -4341 -4344 0
-4272 4341 4344 0
4272 -4341 4344 0
-4343 4341 0
-4343 4272 0
4343 -4341 -4272 0
4274 4343 -4346 0
-4274 -4343 -4346 0
-4274 4343 4346 0
4274 -4343 4346 0
-4345 4343 0
-4345 4274 0
4345 -4343 -4274 0
4276 4345 -4348 0
-4276 -4345 -4348 0
-4276 4345 4348 0
4276 -4345 4348 0
-4347 4345 0
-4347 4276 0
4347 -4345 -4276 0
4278 4347 -4350 0
-4278 -4347 -4350 0
-4278 4347 4350 0
4278 -4347 4350 0
-4349 4347 0
-4349 4278 0
4349 -4347 -4278 0
-4352 4349 4280 4033 0
-4352 4349 -4280 -4033 0
-4352 -4349 4280 -4033 0
4352 4349 4280 -4033 0
-4352 -4349 -4280 4033 0
4352 4349 -4280 4033 0
4352 -4349 4280 4033 0
4352 -4349 -4280 -4033 0
-4351 4349 4280 0
-4351 4349 4033 0
-4351 4280 4033 0
4351 -4349 -4280 0
4351 -4349 -4033 0
4351 -4280 -4033 0
-4354 4351 4282 4034 0
-4354 4351 -4282 -4034 0
-4354 -4351 4282 -4034 0
4354 4351 4282 -4034 0
-4354 -4351 -4282 4034 0
4354 4351 -4282 4034 0
4354 -4351 4282 4034 0
4354 -4351 -4282 -4034 0
-4353 4351 4282 0
-4353 4351 4034 0
-4353 4282 4034 0
4353 -4351 -4282 0
4353 -4351 -4034 0
4353 -4282 -4034 0
-4356 4353 4284 4035 0
-4356 4353 -4284 -4035 0
-4356 -4353 4284 -4035 0
4356 4353 4284 -4035 0
-4356 -4353 -4284 4035 0
4356 4353 -4284 4035 0
4356 -4353 4284 4035 0
4356 -4353 -4284 -4035 0
-4355 4353 4284 0
-4355 4353 4035 0
-4355 4284 4035 0
4355 -4353 -4284 0
4355 -4353 -4035 0
4355 -4284 -4035 0
-4358 4355 4286 4036 0
-4358 4355 -4286 -4036 0
-4358 -4355 4286 -4036 0
4358 4355 4286 -4036 0
-4358 -4355 -4286 4036 0
4358 4355 -4286 4036 0
4358 -4355 4286 4036 0
4358 -4355 -4286 -4036 0
-4357 4355 4286 0
-4357 4355 4036 0
-4357 4286 4036 0
4357 -4355 -4286 0
4357 -4355 -4036 0
4357 -4286 -4036 0
-4360 4357 4288 4037 0
-4360 4357 -4288 -4037 0
-4360 -4357 4288 -4037 0
4360 4357 4288 -4037 0
-4360 -4357 -4288 4037 0
4360 4357 -4288 4037 0
4360 -4357 4288 4037 0
4360 -4357 -4288 -4037 0
-4359 4357 4288 0
-4359 4357 4037 0
-4359 4288 4037 0
4359 -4357 -4288 0
4359 -4357 -4037 0
4359 -4288 -4037 0
-4362 4359 4290 4038 0
-4362 4359 -4290 -4038 0
-4362 -4359 4290 -4038 0
4362 4359 4290 -4038 0
-4362 -4359 -4290 4038 0
4362 4359 -4290 4038 0
4362 -4359 4290 4038 0
4362 -4359 -4290 -4038 0
-4361 4359 4290 0
-4361 4359 4038 0
-4361 4290 4038 0
4361 -4359 -4290 0
4361 -4359 -4038 0
4361 -4290 -4038 0
-4364 4361 4292 4039 0
-4364 4361 -4292 -4039 0
-4364 -4361 4292 -4039 0
4364 4361 4292 -4039 0
-4364 -4361 -4292 4039 0
4364 4361 -4292 4039 0
4364 -4361 4292 4039 0
4364 -4361 -4292 -4039 0
-4363 4361 4292 0
-4363 4361 4039 0
-4363 4292 4039 0
4363 -4361 -4292 0
4363 -4361 -4039 0
4363 -4292 -4039 0
-4366 4363 4294 4040 0
-4366 4363 -4294 -4040 0
-4366 -4363 4294 -4040 0
4366 4363 4294 -4040 0
-4366 -4363 -4294 4040 0
4366 4363 -4294 4040 0
4366 -4363 4294 4040 0
4366 -4363 -4294 -4040 0
-4365 4363 4294 0
-4365 4363 4040 0
-4365 4294 4040 0
4365 -4363 -4294 0
4365 -4363 -4040 0
4365 -4294 -4040 0
-4368 4365 4296 4041 0
-4368 4365 -4296 -4041 0
-4368 -4365 4296 -4041 0
4368 4365 4296 -4041 0
-4368 -4365 -4296 4041 0
4368 4365 -4296 4041 0
4368 -4365 4296 4041 0
4368 -4365 -4296 -4041 0
-4367 4365 4296 0
-4367 4365 4041 0
-4367 4296 4041 0
4367 -4365 -4296 0
4367 -4365 -4041 0
4367 -4296 -4041 0
-4370 4367 4298 4042 0
-4370 4367 -4298 -4042 0
-4370 -4367 4298 -4042 0
4370 4367 4298 -4042 0
-4370 -4367 -4298 4042 0
4370 4367 -4298 4042 0
4370 -4367 4298 4042 0
4370 -4367 -4298 -4042 0
-4369 4367 4298 0
-4369 4367 4042 0
-4369 4298 4042 0
4369 -4367 -4298 0
4369 -4367 -4042 0
4369 -4298 -4042 0
-4372 4369 4300 4043 0
-4372 4369 -4300 -4043 0
-4372 -4369 4300 -4043 0
4372 4369 4300 -4043 0
-4372 -4369 -4300 4043 0
4372 4369 -4300 4043 0
4372 -4369 4300 4043 0
4372 -4369 -4300 -4043 0
-4371 4369 4300 0
-4371 4369 4043 0
-4371 4300 4043 0
4371 -4369 -4300 0
4371 -4369 -4043 0
4371 -4300 -4043 0
-4374 4371 4302 4044 0
-4374 4371 -4302 -4044 0
-4374 -4371 4302 -4044 0
4374 4371 4302 -4044 0
-4374 -4371 -4302 4044 0
4374 4371 -4302 4044 0
4374 -4371 4302 4044 0
4374 -4371 -4302 -4044 0
-4373 4371 4302 0
-4373 4371 4044 0
-4373 4302 4044 0
4373 -4371 -4302 0
4373 -4371 -4044 0
4373 -4302 -4044 0
-4376 4373 4304 4045 0
-4376 4373 -4304 -4045 0
-4376 -4373 4304 -4045 0
4376 4373 4304 -4045 0
-4376 -4373 -4304 4045 0
4376 4373 -4304 4045 0
4376 -4373 4304 4045 0
4376 -4373 -4304 -4045 0
-4375 4373 4304 0
-4375 4373 4045 0
-4375 4304 4045 0
4375 -4373 -4304 0
4375 -4373 -4045 0
4375 -4304 -4045 0
-4378 4375 4306 4046 0
-4378 4375 -4306 -4046 0
-4378 -4375 4306 -4046 0
4378 4375 4306 -4046 0
-4378 -4375 -4306 4046 0
4378 4375 -4306 4046 0
4378 -4375 4306 4046 0
4378 -4375 -4306 -4046 0
-4377 4375 4306 0
-4377 4375 4046 0
-4377 4306 4046 0
4377 -4375 -4306 0
4377 -4375 -4046 0
4377 -4306 -4046 0
-4380 4377 4308 4047 0
-4380 4377 -4308 -4047 0
-4380 -4377 4308 -4047 0
4380 4377 4308 -4047 0
-4380 -4377 -4308 4047 0
4380 4377 -4308 4047 0
4380 -4377 4308 4047 0
4380 -4377 -4308 -4047 0
-4379 4377 4308 0
-4379 4377 4047 0
-4379 4308 4047 0
4379 -4377 -4308 0
4379 -4377 -4047 0
4379 -4308 -4047 0
-4382 4379 4310 4048 0
-4382 4379 -4310 -4048 0
-4382 -4379 4310 -4048 0
4382 4379 4310 -4048 0
-4382 -4379 -4310 4048 0
4382 4379 -4310 4048 0
4382 -4379 4310 4048 0
4382 -4379 -4310 -4048 0
-4381 4379 4310 0
-4381 4379 4048 0
-4381 4310 4048 0
4381 -4379 -4310 0
4381 -4379 -4048 0
4381 -4310 -4048 0
-4384 4381 4312 4049 0
-4384 4381 -4312 -4049 0
-4384 -4381 4312 -4049 0
4384 4381 4312 -4049 0
-4384 -4381 -4312 4049 0
4384 4381 -4312 4049 0
4384 -4381 4312 4049 0
4384 -4381 -4312 -4049 0
-4383 4381 4312 0
-4383 4381 4049 0
-4383 4312 4049 0
4383 -4381 -4312 0
4383 -4381 -4049 0
4383 -4312 -4049 0
-4386 4383 4314 4050 0
-4386 4383 -4314 -4050 0
-4386 -4383 4314 -4050 0
4386 4383 4314 -4050 0
-4386 -4383 -4314 4050 0
4386 4383 -4314 4050 0
4386 -4383 4314 4050 0
4386 -4383 -4314 -4050 0
-4385 4383 4314 0
-4385 4383 4050 0
-4385 4314 4050 0
4385 -4383 -4314 0
4385 -4383 -4050 0
4385 -4314 -4050 0
-4388 4385 4316 4051 0
-4388 4385 -4316 -4051 0
-4388 -4385 4316 -4051 0
4388 4385 4316 -4051 0
-4388 -4385 -4316 4051 0
4388 4385 -4316 4051 0
4388 -4385 4316 4051 0
4388 -4385 -4316 -4051 0
-4387 4385 4316 0
-4387 4385 4051 0
-4387 4316 4051 0
4387 -4385 -4316 0
4387 -4385 -4051 0
4387 -4316 -4051 0
-4390 4387 4318 4052 0
-4390 4387 -4318 -4052 0
-4390 -4387 4318 -4052 0
4390 4387 4318 -4052 0
-4390 -4387 -4318 4052 0
4390 4387 -4318 4052 0
4390 -4387 4318 4052 0
4390 -4387 -4318 -4052 0
-4389 4387 4318 0
-4389 4387 4052 0
-4389 4318 4052 0
4389 -4387 -4318 0
4389 -4387 -4052 0
4389 -4318 -4052 0
-4392 4389 4320 4053 0
-4392 4389 -4320 -4053 0
-4392 -4389 4320 -4053 0
4392 4389 4320 -4053 0
-4392 -4389 -4320 4053 0
4392 4389 -4320 4053 0
4392 -4389 4320 4053 0
4392 -4389 -4320 -4053 0
-4391 4389 4320 0
-4391 4389 4053 0
-4391 4320 4053 0
4391 -4389 -4320 0
4391 -4389 -4053 0
4391 -4320 -4053 0
-4394 4391 4322 4054 0
-4394 4391 -4322 -4054 0
-4394 -4391 4322 -4054 0
4394 4391 4322 -4054 0
-4394 -4391 -4322 4054 0
4394 4391 -4322 4054 0
4394 -4391 4322 4054 0
4394 -4391 -4322 -4054 0
-4393 4391 4322 0
-4393 4391 4054 0
-4393 4322 4054 0
4393 -4391 -4322 0
4393 -4391 -4054 0
4393 -4322 -4054 0
-4396 4393 4324 4055 0
-4396 4393 -4324 -4055 0
-4396 -4393 4324 -4055 0
4396 4393 4324 -4055 0
-4396 -4393 -4324 4055 0
4396 4393 -4324 4055 0
4396 -4393 4324 4055 0
4396 -4393 -4324 -4055 0
-4395 4393 4324 0
-4395 4393 4055 0
-4395 4324 4055 0
4395 -4393 -4324 0
4395 -4393 -4055 0
4395 -4324 -4055 0
-4398 4395 4326 4056 0
-4398 4395 -4326 -4056 0
-4398 -4395 4326 -4056 0
4398 4395 4326 -4056 0
-4398 -4395 -4326 4056 0
4398 4395 -4326 4056 0
4398 -4395 4326 4056 0
4398 -4395 -4326 -4056 0
-4397 4395 4326 0
-4397 4395 4056 0
-4397 4326 4056 0
4397 -4395 -4326 0
4397 -4395 -4056 0
4397 -4326 -4056 0
-4400 4397 4328 4057 0
-4400 4397 -4328 -4057 0
-4400 -4397 4328 -4057 0
4400 4397 4328 -4057 0
-4400 -4397 -4328 4057 0
4400 4397 -4328 4057 0
4400 -4397 4328 4057 0
4400 -4397 -4328 -4057 0
-4399 4397 4328 0
-4399 4397 4057 0
-4399 4328 4057 0
4399 -4397 -4328 0
4399 -4397 -4057 0
4399 -4328 -4057 0
-4402 4399 4330 4058 0
-4402 4399 -4330 -4058 0
-4402 -4399 4330 -4058 0
4402 4399 4330 -4058 0
-4402 -4399 -4330 4058 0
4402 4399 -4330 4058 0
4402 -4399 4330 4058 0
4402 -4399 -4330 -4058 0
-4401 4399 4330 0
-4401 4399 4058 0
-4401 4330 4058 0
4401 -4399 -4330 0
4401 -4399 -4058 0
4401 -4330 -4058 0
-4404 4401 4332 4059 0
-4404 4401 -4332 -4059 0
-4404 -4401 4332 -4059 0
4404 4401 4332 -4059 0
-4404 -4401 -4332 4059 0
4404 4401 -4332 4059 0
4404 -4401 4332 4059 0
4404 -4401 -4332 -4059 0
-4403 4401 4332 0
-4403 4401 4059 0
-4403 4332 4059 0
4403 -4401 -4332 0
4403 -4401 -4059 0
4403 -4332 -4059 0
-4406 4403 4334 4060 0
-4406 4403 -4334 -4060 0
-4406 -4403 4334 -4060 0
4406 4403 4334 -4060 0
-4406 -4403 -4334 4060 0
4406 4403 -4334 4060 0
4406 -4403 4334 4060 0
4406 -4403 -4334 -4060 0
-4405 4403 4334 0
-4405 4403 4060 0
-4405 4334 4060 0
4405 -4403 -4334 0
4405 -4403 -4060 0
4405 -4334 -4060 0
-4408 4405 4336 4061 0
-4408 4405 -4336 -4061 0
-4408 -4405 4336 -4061 0
4408 4405 4336 -4061 0
-4408 -4405 -4336 4061 0
4408 4405 -4336 4061 0
4408 -4405 4336 4061 0
4408 -4405 -4336 -4061 0
-4407 4405 4336 0
-4407 4405 4061 0
-4407 4336 4061 0
4407 -4405 -4336 0
4407 -4405 -4061 0
4407 -4336 -4061 0
-4410 4407 4338 4062 0
-4410 4407 -4338 -4062 0
-4410 -4407 4338 -4062 0
4410 4407 4338 -4062 0
-4410 -4407 -4338 4062 0
4410 4407 -4338 4062 0
4410 -4407 4338 4062 0
4410 -4407 -4338 -4062 0
-4409 4407 4338 0
-4409 4407 4062 0
-4409 4338 4062 0
4409 -4407 -4338 0
4409 -4407 -4062 0
4409 -4338 -4062 0
-4412 4409 4340 4063 0
-4412 4409 -4340 -4063 0
-4412 -4409 4340 -4063 0
4412 4409 4340 -4063 0
-4412 -4409 -4340 4063 0
4412 4409 -4340 4063 0
4412 -4409 4340 4063 0
4412 -4409 -4340 -4063 0
-4411 4409 4340 0
-4411 4409 4063 0
-4411 4340 4063 0
4411 -4409 -4340 0
4411 -4409 -4063 0
4411 -4340 -4063 0
-4414 4411 4339 4064 0
-4414 4411 -4339 -4064 0
-4414 -4411 4339 -4064 0
4414 4411 4339 -4064 0
-4414 -4411 -4339 4064 0
4414 4411 -4339 4064 0
4414 -4411 4339 4064 0
4414 -4411 -4339 -4064 0
-4413 4411 4339 0
-4413 4411 4064 0
-4413 4339 4064 0
4413 -4411 -4339 0
4413 -4411 -4064 0
4413 -4339 -4064 0
-4342 4416 0
4342 -4416 0
-4415 0
4344 4415 -4418 0
-4344 -4415 -4418 0
-4344 4415 4418 0
4344 -4415 4418 0
-4417 4415 0
-4417 4344 0
4417 -4415 -4344 0
4346 4417 -4420 0
-4346 -4417 -4420 0
-4346 4417 4420 0
4346 -4417 4420 0
-4419 4417 0
-4419 4346 0
4419 -4417 -4346 0
4348 4419 -4422 0
-4348 -4419 -4422 0
-4348 4419 4422 0
4348 -4419 4422 0
-4421 4419 0
-4421 4348 0
4421 -4419 -4348 0
4350 4421 -4424 0
-4350 -4421 -4424 0
-4350 4421 4424 0
4350 -4421 4424 0
-4423 4421 0
-4423 4350 0
4423 -4421 -4350 0
4352 4423 -4426 0
-4352 -4423 -4426 0
-4352 4423 4426 0
4352 -4423 4426 0
-4425 4423 0
-4425 4352 0
4425 -4423 -4352 0
-4428 4425 4354 4033 0
-4428 4425 -4354 -4033 0
-4428 -4425 4354 -4033 0
4428 4425 4354 -4033 0
-4428 -4425 -4354 4033 0
4428 4425 -4354 4033 0
4428 -4425 4354 4033 0
4428 -4425 -4354 -4033 0
-4427 4425 4354 0
-4427 4425 4033 0
-4427 4354 4033 0
4427 -4425 -4354 0
4427 -4425 -4033 0
4427 -4354 -4033 0
-4430 4427 4356 4034 0
-4430 4427 -4356 -4034 0
-4430 -4427 4356 -4034 0
4430 4427 4356 -4034 0
-4430 -4427 -4356 4034 0
4430 4427 -4356 4034 0
4430 -4427 4356 4034 0
4430 -4427 -4356 -4034 0
-4429 4427 4356 0
-4429 4427 4034 0
-4429 4356 4034 0
4429 -4427 -4356 0
4429 -4427 -4034 0
4429 -4356 -4034 0
-4432 4429 4358 4035 0
-4432 4429 -4358 -4035 0
-4432 -4429 4358 -4035 0
4432 4429 4358 -4035 0
-4432 -4429 -4358 4035 0
4432 4429 -4358 4035 0
4432 -4429 4358 4035 0
4432 -4429 -4358 -4035 0
-4431 4429 4358 0
-4431 4429 4035 0
-4431 4358 4035 0
4431 -4429 -4358 0
4431 -4429 -4035 0
4431 -4358 -4035 0
-4434 4431 4360 4036 0
-4434 4431 -4360 -4036 0
-4434 -4431 4360 -4036 0
4434 4431 4360 -4036 0
-4434 -4431 -4360 4036 0
4434 4431 -4360 4036 0
4434 -4431 4360 4036 0
4434 -4431 -4360 -4036 0
-4433 4431 4360 0
-4433 4431 4036 0
-4433 4360 4036 0
4433 -4431 -4360 0
4433 -4431 -4036 0
4433 -4360 -4036 0
-4436 4433 4362 4037 0
-4436 4433 -4362 -4037 0
-4436 -4433 4362 -4037 0
4436 4433 4362 -4037 0
-4436 -4433 -4362 4037 0
4436 4433 -4362 4037 0
4436 -4433 4362 4037 0
4436 -4433 -4362 -4037 0
-4435 4433 4362 0
-4435 4433 4037 0
-4435 4362 4037 0
4435 -4433 -4362 0
4435 -4433 -4037 0
4435 -4362 -4037 0
-4438 4435 4364 4038 0
-4438 4435 -4364 -4038 0
-4438 -4435 4364 -4038 0
4438 4435 4364 -4038 0
-4438 -4435 -4364 4038 0
4438 4435 -4364 4038 0
4438 -4435 4364 4038 0
4438 -4435 -4364 -4038 0
-4437 4435 4364 0
-4437 4435 4038 0
-4437 4364 4038 0
4437 -4435 -4364 0
4437 -4435 -4038 0
4437 -4364 -4038 0
-4440 4437 4366 4039 0
-4440 4437 -4366 -4039 0
-4440 -4437 4366 -4039 0
4440 4437 4366 -4039 0
-4440 -4437 -4366 4039 0
4440 4437 -4366 4039 0
4440 -4437 4366 4039 0
4440 -4437 -4366 -4039 0
-4439 4437 4366 0
-4439 4437 4039 0
-4439 4366 4039 0
4439 -4437 -4366 0
4439 -4437 -4039 0
4439 -4366 -4039 0
-4442 4439 4368 4040 0
-4442 4439 -4368 -4040 0
-4442 -4439 4368 -4040 0
4442 4439 4368 -4040 0
-4442 -4439 -4368 4040 0
4442 4439 -4368 4040 0
4442 -4439 4368 4040 0
4442 -4439 -4368 -4040 0
-4441 4439 4368 0
-4441 4439 4040 0
-4441 4368 4040 0
4441 -4439 -4368 0
4441 -4439 -4040 0
4441 -4368 -4040 0
-4444 4441 4370 4041 0
-4444 4441 -4370 -4041 0
-4444 -4441 4370 -4041 0
4444 4441 4370 -4041 0
-4444 -4441 -4370 4041 0
4444 4441 -4370 4041 0
4444 -4441 4370 4041 0
4444 -4441 -4370 -4041 0
-4443 4441 4370 0
-4443 4441 4041 0
-4443 4370 4041 0
4443 -4441 -4370 0
4443 -4441 -4041 0
4443 -4370 -4041 0
-4446 4443 4372 4042 0
-4446 4443 -4372 -4042 0
-4446 -4443 4372 -4042 0
4446 4443 4372 -4042 0
-4446 -4443 -4372 4042 0
4446 4443 -4372 4042 0
4446 -4443 4372 4042 0
4446 -4443 -4372 -4042 0
-4445 4443 4372 0
-4445 4443 4042 0
-4445 4372 4042 0
4445 -4443 -4372 0
4445 -4443 -4042 0
4445 -4372 -4042 0
-4448 4445 4374 4043 0
-4448 4445 -4374 -4043 0
-4448 -4445 4374 -4043 0
4448 4445 4374 -4043 0
-4448 -4445 -4374 4043 0
4448 4445 -4374 4043 0
4448 -4445 4374 4043 0
4448 -4445 -4374 -4043 0
-4447 4445 4374 0
-4447 4445 4043 0
-4447 4374 4043 0
4447 -4445 -4374 0
4447 -4445 -4043 0
4447 -4374 -4043 0
-4450 4447 4376 4044 0
-4450 4447 -4376 -4044 0
-4450 -4447 4376 -4044 0
4450 4447 4376 -4044 0
-4450 -4447 -4376 4044 0
4450 4447 -4376 4044 0
4450 -4447 4376 4044 0
4450 -4447 -4376 -4044 0
-4449 4447 4376 0
-4449 4447 4044 0
-4449 4376 4044 0
4449 -4447 -4376 0
4449 -4447 -4044 0
4449 -4376 -4044 0
-4452 4449 4378 4045 0
-4452 4449 -4378 -4045 0
-4452 -4449 4378 -4045 0
4452 4449 4378 -4045 0
-4452 -4449 -4378 4045 0
4452 4449 -4378 4045 0
4452 -4449 4378 4045 0
4452 -4449 -4378 -4045 0
-4451 4449 4378 0
-4451 4449 4045 0
-4451 4378 4045 0
4451 -4449 -4378 0
4451 -4449 -4045 0
4451 -4378 -4045 0
-4454 4451 4380 4046 0
-4454 4451 -4380 -4046 0
-4454 -4451 4380 -4046 0
4454 4451 4380 -4046 0
-4454 -4451 -4380 4046 0
4454 4451 -4380 4046 0
4454 -4451 4380 4046 0
4454 -4451 -4380 -4046 0
-4453 4451 4380 0
-4453 4451 4046 0
-4453 4380 4046 0
4453 -4451 -4380 0
4453 -4451 -4046 0
4453 -4380 -4046 0
-4456 4453 4382 4047 0
-4456 4453 -4382 -4047 0
-4456 -4453 4382 -4047 0
4456 4453 4382 -4047 0
-4456 -4453 -4382 4047 0
4456 4453 -4382 4047 0
4456 -4453 4382 4047 0
4456 -4453 -4382 -4047 0
-4455 4453 4382 0
-4455 4453 4047 0
-4455 4382 4047 0
4455 -4453 -4382 0
4455 -4453 -4047 0
4455 -4382 -4047 0
-4458 4455 4384 4048 0
-4458 4455 -4384 -4048 0
-4458 -4455 4384 -4048 0
4458 4455 4384 -4048 0
-4458 -4455 -4384 4048 0
4458 4455 -4384 4048 0
4458 -4455 4384 4048 0
4458 -4455 -4384 -4048 0
-4457 4455 4384 0
-4457 4455 4048 0
-4457 4384 4048 0
4457 -4455 -4384 0
4457 -4455 -4048 0
4457 -4384 -4048 0
-4460 4457 4386 4049 0
-4460 4457 -4386 -4049 0
-4460 -4457 4386 -4049 0
4460 4457 4386 -4049 0
-4460 -4457 -4386 4049 0
4460 4457 -4386 4049 0
4460 -4457 4386 4049 0
4460 -4457 -4386 -4049 0
-4459 4457 4386 0
-4459 4457 4049 0
-4459 4386 4049 0
4459 -4457 -4386 0
4459 -4457 -4049 0
4459 -4386 -4049 0
-4462 4459 4388 4050 0
-4462 4459 -4388 -4050 0
-4462 -4459 4388 -4050 0
4462 4459 4388 -4050 0
-4462 -4459 -4388 4050 0
4462 4459 -4388 4050 0
4462 -4459 4388 4050 0
4462 -4459 -4388 -4050 0
-4461 4459 4388 0
-4461 4459 4050 0
-4461 4388 4050 0
4461 -4459 -4388 0
4461 -4459 -4050 0
4461 -4388 -4050 0
-4464 4461 4390 4051 0
-4464 4461 -4390 -4051 0
-4464 -4461 4390 -4051 0
4464 4461 4390 -4051 0
-4464 -4461 -4390 4051 0
4464 4461 -4390 4051 0
4464 -4461 4390 4051 0
4464 -4461 -4390 -4051 0
-4463 4461 4390 0
-4463 4461 4051 0
-4463 4390 4051 0
4463 -4461 -4390 0
4463 -4461 -4051 0
4463 -4390 -4051 0
-4466 4463 4392 4052 0
-4466 4463 -4392 -4052 0
-4466 -4463 4392 -4052 0
4466 4463 4392 -4052 0
-4466 -4463 -4392 4052 0
4466 4463 -4392 4052 0
4466 -4463 4392 4052 0
4466 -4463 -4392 -4052 0
-4465 4463 4392 0
-4465 4463 4052 0
-4465 4392 4052 0
4465 -4463 -4392 0
4465 -4463 -4052 0
4465 -4392 -4052 0
-4468 4465 4394 4053 0
-4468 4465 -4394 -4053 0
-4468 -4465 4394 -4053 0
4468 4465 4394 -4053 0
-4468 -4465 -4394 4053 0
4468 4465 -4394 4053 0
4468 -4465 4394 4053 0
4468 -4465 -4394 -4053 0
-4467 4465 4394 0
-4467 4465 4053 0
-4467 4394 4053 0
4467 -4465 -4394 0
4467 -4465 -4053 0
4467 -4394 -4053 0
-4470 4467 4396 4054 0
-4470 4467 -4396 -4054 0
-4470 -4467 4396 -4054 0
4470 4467 4396 -4054 0
-4470 -4467 -4396 4054 0
4470 4467 -4396 4054 0
4470 -4467 4396 4054 0
4470 -4467 -4396 -4054 0
-4469 4467 4396 0
-4469 4467 4054 0
-4469 4396 4054 0
4469 -4467 -4396 0
4469 -4467 -4054 0
4469 -4396 -4054 0
-4472 4469 4398 4055 0
-4472 4469 -4398 -4055 0
-4472 -4469 4398 -4055 0
4472 4469 4398 -4055 0
-4472 -4469 -4398 4055 0
4472 4469 -4398 4055 0
4472 -4469 4398 4055 0
4472 -4469 -4398 -4055 0
-4471 4469 4398 0
-4471 4469 4055 0
-4471 4398 4055 0
4471 -4469 -4398 0
4471 -4469 -4055 0
4471 -4398 -4055 0
-4474 4471 4400 4056 0
-4474 4471 -4400 -4056 0
-4474 -4471 4400 -4056 0
4474 4471 4400 -4056 0
-4474 -4471 -4400 4056 0
4474 4471 -4400 4056 0
4474 -4471 4400 4056 0
4474 -4471 -4400 -4056 0
-4473 4471 4400 0
-4473 4471 4056 0
-4473 4400 4056 0
4473 -4471 -4400 0
4473 -4471 -4056 0
4473 -4400 -4056 0
-4476 4473 4402 4057 0
-4476 4473 -4402 -4057 0
-4476 -4473 4402 -4057 0
4476 4473 4402 -4057 0
-4476 -4473 -4402 4057 0
4476 4473 -4402 4057 0
4476 -4473 4402 4057 0
4476 -4473 -4402 -4057 0
-4475 4473 4402 0
-4475 4473 4057 0
-4475 4402 4057 0
4475 -4473 -4402 0
4475 -4473 -4057 0
4475 -4402 -4057 0
-4478 4475 4404 4058 0
-4478 4475 -4404 -4058 0
-4478 -4475 4404 -4058 0
4478 4475 4404 -4058 0
-4478 -4475 -4404 4058 0
4478 4475 -4404 4058 0
4478 -4475 4404 4058 0
4478 -4475 -4404 -4058 0
-4477 4475 4404 0
-4477 4475 4058 0
-4477 4404 4058 0
4477 -4475 -4404 0
4477 -4475 -4058 0
4477 -4404 -4058 0
-4480 4477 4406 4059 0
-4480 4477 -4406 -4059 0
-4480 -4477 4406 -4059 0
4480 4477 4406 -4059 0
-4480 -4477 -4406 4059 0
4480 4477 -4406 4059 0
4480 -4477 4406 4059 0
4480 -4477 -4406 -4059 0
-4479 4477 4406 0
-4479 4477 4059 0
-4479 4406 4059 0
4479 -4477 -4406 0
4479 -4477 -4059 0
4479 -4406 -4059 0
-4482 4479 4408 4060 0
-4482 4479 -4408 -4060 0
-4482 -4479 4408 -4060 0
4482 4479 4408 -4060 0
-4482 -4479 -4408 4060 0
4482 4479 -4408 4060 0
4482 -4479 4408 4060 0
4482 -4479 -4408 -4060 0
-4481 4479 4408 0
-4481 4479 4060 0
-4481 4408 4060 0
4481 -4479 -4408 0
4481 -4479 -4060 0
4481 -4408 -4060 0
-4484 4481 4410 4061 0
-4484 4481 -4410 -4061 0
-4484 -4481 4410 -4061 0
4484 4481 4410 -4061 0
-4484 -4481 -4410 4061 0
4484 4481 -4410 4061 0
4484 -4481 4410 4061 0
4484 -4481 -4410 -4061 0
-4483 4481 4410 0
-4483 4481 4061 0
-4483 4410 4061 0
4483 -4481 -4410 0
4483 -4481 -4061 0
4483 -4410 -4061 0
-4486 4483 4412 4062 0
-4486 4483 -4412 -4062 0
-4486 -4483 4412 -4062 0
4486 4483 4412 -4062 0
-4486 -4483 -4412 4062 0
4486 4483 -4412 4062 0
4486 -4483 4412 4062 0
4486 -4483 -4412 -4062 0
-4485 4483 4412 0
-4485 4483 4062 0
-4485 4412 4062 0
4485 -4483 -4412 0
4485 -4483 -4062 0
4485 -4412 -4062 0
-4488 4485 4414 4063 0
-4488 4485 -4414 -4063 0
-4488 -4485 4414 -4063 0
4488 4485 4414 -4063 0
-4488 -4485 -4414 4063 0
4488 4485 -4414 4063 0
4488 -4485 4414 4063 0
4488 -4485 -4414 -4063 0
-4487 4485 4414 0
-4487 4485 4063 0
-4487 4414 4063 0
4487 -4485 -4414 0
4487 -4485 -4063 0
4487 -4414 -4063 0
-4490 4487 4413 4064 0
-4490 4487 -4413 -4064 0
-4490 -4487 4413 -4064 0
4490 4487 4413 -4064 0
-4490 -4487 -4413 4064 0
4490 4487 -4413 4064 0
4490 -4487 4413 4064 0
4490 -4487 -4413 -4064 0
-4489 4487 4413 0
-4489 4487 4064 0
-4489 4413 4064 0
4489 -4487 -4413 0
4489 -4487 -4064 0
4489 -4413 -4064 0
-4416 4492 0
4416 -4492 0
-4491 0
4418 4491 -4494 0
-4418 -4491 -4494 0
-4418 4491 4494 0
4418 -4491 4494 0
-4493 4491 0
-4493 4418 0
4493 -4491 -4418 0
4420 4493 -4496 0
-4420 -4493 -4496 0
-4420 4493 4496 0
4420 -4493 4496 0
-4495 4493 0
-4495 4420 0
4495 -4493 -4420 0
4422 4495 -4498 0
-4422 -4495 -4498 0
-4422 4495 4498 0
4422 -4495 4498 0
-4497 4495 0
-4497 4422 0
4497 -4495 -4422 0
4424 4497 -4500 0
-4424 -4497 -4500 0
-4424 4497 4500 0
4424 -4497 4500 0
-4499 4497 0
-4499 4424 0
4499 -4497 -4424 0
4426 4499 -4502 0
-4426 -4499 -4502 0
-4426 4499 4502 0
4426 -4499 4502 0
-4501 4499 0
-4501 4426 0
4501 -4499 -4426 0
4428 4501 -4504 0
-4428 -4501 -4504 0
-4428 4501 4504 0
4428 -4501 4504 0
-4503 4501 0
-4503 4428 0
4503 -4501 -4428 0
4430 4503 -4506 0
-4430 -4503 -4506 0
-4430 4503 4506 0
4430 -4503 4506 0
-4505 4503 0
-4505 4430 0
4505 -4503 -4430 0
4432 4505 -4508 0
-4432 -4505 -4508 0
-4432 4505 4508 0
4432 -4505 4508 0
-4507 4505 0
-4507 4432 0
4507 -4505 -4432 0
-4510 4507 4434 4033 0
-4510 4507 -4434 -4033 0
-4510 -4507 4434 -4033 0
4510 4507 4434 -4033 0
-4510 -4507 -4434 4033 0
4510 4507 -4434 4033 0
4510 -4507 4434 4033 0
4510 -4507 -4434 -4033 0
-4509 4507 4434 0
-4509 4507 4033 0
-4509 4434 4033 0
4509 -4507 -4434 0
4509 -4507 -4033 0
4509 -4434 -4033 0
-4512 4509 4436 4034 0
-4512 4509 -4436 -4034 0
-4512 -4509 4436 -4034 0
4512 4509 4436 -4034 0
-4512 -4509 -4436 4034 0
4512 4509 -4436 4034 0
4512 -4509 4436 4034 0
4512 -4509 -4436 -4034 0
-4511 4509 4436 0
-4511 4509 4034 0
-4511 4436 4034 0
4511 -4509 -4436 0
4511 -4509 -4034 0
4511 -4436 -4034 0
-4514 4511 4438 4035 0
-4514 4511 -4438 -4035 0
-4514 -4511 4438 -4035 0
4514 4511 4438 -4035 0
-4514 -4511 -4438 4035 0
4514 4511 -4438 4035 0
4514 -4511 4438 4035 0
4514 -4511 -4438 -4035 0
-4513 4511 4438 0
-4513 4511 4035 0
-4513 4438 4035 0
4513 -4511 -4438 0
4513 -4511 -4035 0
4513 -4438 -4035 0
-4516 4513 4440 4036 0
-4516 4513 -4440 -4036 0
-4516 -4513 4440 -4036 0
4516 4513 4440 -4036 0
-4516 -4513 -4440 4036 0
4516 4513 -4440 4036 0
4516 -4513 4440 4036 0
4516 -4513 -4440 -4036 0
-4515 4513 4440 0
-4515 4513 4036 0
-4515 4440 4036 0
4515 -4513 -4440 0
4515 -4513 -4036 0
4515 -4440 -4036 0
-4518 4515 4442 4037 0
-4518 4515 -4442 -4037 0
-4518 -4515 4442 -4037 0
4518 4515 4442 -4037 0
-4518 -4515 -4442 4037 0
4518 4515 -4442 4037 0
4518 -4515 4442 4037 0
4518 -4515 -4442 -4037 0
-4517 4515 4442 0
-4517 4515 4037 0
-4517 4442 4037 0
4517 -4515 -4442 0
4517 -4515 -4037 0
4517 -4442 -4037 0
-4520 4517 4444 4038 0
-4520 4517 -4444 -4038 0
-4520 -4517 4444 -4038 0
4520 4517 4444 -4038 0
-4520 -4517 -4444 4038 0
4520 4517 -4444 4038 0
4520 -4517 4444 4038 0
4520 -4517 -4444 -4038 0
-4519 4517 4444 0
-4519 4517 4038 0
-4519 4444 4038 0
4519 -4517 -4444 0
4519 -4517 -4038 0
4519 -4444 -4038 0
-4522 4519 4446 4039 0
-4522 4519 -4446 -4039 0
-4522 -4519 4446 -4039 0
4522 4519 4446 -4039 0
-4522 -4519 -4446 4039 0
4522 4519 -4446 4039 0
4522 -4519 4446 4039 0
4522 -4519 -4446 -4039 0
-4521 4519 4446 0
-4521 4519 4039 0
-4521 4446 4039 0
4521 -4519 -4446 0
4521 -4519 -4039 0
4521 -4446 -4039 0
-4524 4521 4448 4040 0
-4524 4521 -4448 -4040 0
-4524 -4521 4448 -4040 0
4524 4521 4448 -4040 0
-4524 -4521 -4448 4040 0
4524 4521 -4448 4040 0
4524 -4521 4448 4040 0
4524 -4521 -4448 -4040 0
-4523 4521 4448 0
-4523 4521 4040 0
-4523 4448 4040 0
4523 -4521 -4448 0
4523 -4521 -4040 0
4523 -4448 -4040 0
-4526 4523 4450 4041 0
-4526 4523 -4450 -4041 0
-4526 -4523 4450 -4041 0
4526 4523 4450 -4041 0
-4526 -4523 -4450 4041 0
4526 4523 -4450 4041 0
4526 -4523 4450 4041 0
4526 -4523 -4450 -4041 0
-4525 4523 4450 0
-4525 4523 4041 0
-4525 4450 4041 0
4525 -4523 -4450 0
4525 -4523 -4041 0
4525 -4450 -4041 0
-4528 4525 4452 4042 0
-4528 4525 -4452 -4042 0
-4528 -4525 4452 -4042 0
4528 4525 4452 -4042 0
-4528 -4525 -4452 4042 0
4528 4525 -4452 4042 0
4528 -4525 4452 4042 0
4528 -4525 -4452 -4042 0
-4527 4525 4452 0
-4527 4525 4042 0
-4527 4452 4042 0
4527 -4525 -4452 0
4527 -4525 -4042 0
4527 -4452 -4042 0
-4530 4527 4454 4043 0
-4530 4527 -4454 -4043 0
-4530 -4527 4454 -4043 0
4530 4527 4454 -4043 0
-4530 -4527 -4454 4043 0
4530 4527 -4454 4043 0
4530 -4527 4454 4043 0
4530 -4527 -4454 -4043 0
-4529 4527 4454 0
-4529 4527 4043 0
-4529 4454 4043 0
4529 -4527 -4454 0
4529 -4527 -4043 0
4529 -4454 -4043 0
-4532 4529 4456 4044 0
-4532 4529 -4456 -4044 0
-4532 -4529 4456 -4044 0
4532 4529 4456 -4044 0
-4532 -4529 -4456 4044 0
4532 4529 -4456 4044 0
4532 -4529 4456 4044 0
4532 -4529 -4456 -4044 0
-4531 4529 4456 0
-4531 4529 4044 0
-4531 4456 4044 0
4531 -4529 -4456 0
4531 -4529 -4044 0
4531 -4456 -4044 0
-4534 4531 4458 4045 0
-4534 4531 -4458 -4045 0
-4534 -4531 4458 -4045 0
4534 4531 4458 -4045 0
-4534 -4531 -4458 4045 0
4534 4531 -4458 4045 0
4534 -4531 4458 4045 0
4534 -4531 -4458 -4045 0
-4533 4531 4458 0
-4533 4531 4045 0
-4533 4458 4045 0
4533 -4531 -4458 0
4533 -4531 -4045 0
4533 -4458 -4045 0
-4536 4533 4460 4046 0
-4536 4533 -4460 -4046 0
-4536 -4533 4460 -4046 0
4536 4533 4460 -4046 0
-4536 -4533 -4460 4046 0
4536 4533 -4460 4046 0
4536 -4533 4460 4046 0
4536 -4533 -4460 -4046 0
-4535 4533 4460 0
-4535 4533 4046 0
-4535 4460 4046 0
4535 -4533 -4460 0
4535 -4533 -4046 0
4535 -4460 -4046 0
-4538 4535 4462 4047 0
-4538 4535 -4462 -4047 0
-4538 -4535 4462 -4047 0
4538 4535 4462 -4047 0
-4538 -4535 -4462 4047 0
4538 4535 -4462 4047 0
4538 -4535 4462 4047 0
4538 -4535 -4462 -4047 0
-4537 4535 4462 0
-4537 4535 4047 0
-4537 4462 4047 0
4537 -4535 -4462 0
4537 -4535 -4047 0
4537 -4462 -4047 0
-4540 4537 4464 4048 0
-4540 4537 -4464 -4048 0
-4540 -4537 4464 -4048 0
4540 4537 4464 -4048 0
-4540 -4537 -4464 4048 0
4540 4537 -4464 4048 0
4540 -4537 4464 4048 0
4540 -4537 -4464 -4048 0
-4539 4537 4464 0
-4539 4537 4048 0
-4539 4464 4048 0
4539 -4537 -4464 0
4539 -4537 -4048 0
4539 -4464 -4048 0
-4542 4539 4466 4049 0
-4542 4539 -4466 -4049 0
-4542 -4539 4466 -4049 0
4542 4539 4466 -4049 0
-4542 -4539 -4466 4049 0
4542 4539 -4466 4049 0
4542 -4539 4466 4049 0
4542 -4539 -4466 -4049 0
-4541 4539 4466 0
-4541 4539 4049 0
-4541 4466 4049 0
4541 -4539 -4466 0
4541 -4539 -4049 0
4541 -4466 -4049 0
-4544 4541 4468 4050 0
-4544 4541 -4468 -4050 0
-4544 -4541 4468 -4050 0
4544 4541 4468 -4050 0
-4544 -4541 -4468 4050 0
4544 4541 -4468 4050 0
4544 -4541 4468 4050 0
4544 -4541 -4468 -4050 0
-4543 4541 4468 0
-4543 4541 4050 0
-4543 4468 4050 0
4543 -4541 -4468 0
4543 -4541 -4050 0
4543 -4468 -4050 0
-4546 4543 4470 4051 0
-4546 4543 -4470 -4051 0
-4546 -4543 4470 -4051 0
4546 4543 4470 -4051 0
-4546 -4543 -4470 4051 0
4546 4543 -4470 4051 0
4546 -4543 4470 4051 0
4546 -4543 -4470 -4051 0
-4545 4543 4470 0
-4545 4543 4051 0
-4545 4470 4051 0
4545 -4543 -4470 0
4545 -4543 -4051 0
4545 -4470 -4051 0
-4548 4545 4472 4052 0
-4548 4545 -4472 -4052 0
-4548 -4545 4472 -4052 0
4548 4545 4472 -4052 0
-4548 -4545 -4472 4052 0
4548 4545 -4472 4052 0
4548 -4545 4472 4052 0
4548 -4545 -4472 -4052 0
-4547 4545 4472 0
-4547 4545 4052 0
-4547 4472 4052 0
4547 -4545 -4472 0
4547 -4545 -4052 0
4547 -4472 -4052 0
-4550 4547 4474 4053 0
-4550 4547 -4474 -4053 0
-4550 -4547 4474 -4053 0
4550 4547 4474 -4053 0
-4550 -4547 -4474 4053 0
4550 4547 -4474 4053 0
4550 -4547 4474 4053 0
4550 -4547 -4474 -4053 0
-4549 4547 4474 0
-4549 4547 4053 0
-4549 4474 4053 0
4549 -4547 -4474 0
4549 -4547 -4053 0
4549 -4474 -4053 0
-4552 4549 4476 4054 0
-4552 4549 -4476 -4054 0
-4552 -4549 4476 -4054 0
4552 4549 4476 -4054 0
-4552 -4549 -4476 4054 0
4552 4549 -4476 4054 0
4552 -4549 4476 4054 0
4552 -4549 -4476 -4054 0
-4551 4549 4476 0
-4551 4549 4054 0
-4551 4476 4054 0
4551 -4549 -4476 0
4551 -4549 -4054 0
4551 -4476 -4054 0
-4554 4551 4478 4055 0
-4554 4551 -4478 -4055 0
-4554 -4551 4478 -4055 0
4554 4551 4478 -4055 0
-4554 -4551 -4478 4055 0
4554 4551 -4478 4055 0
4554 -4551 4478 4055 0
4554 -4551 -4478 -4055 0
-4553 4551 4478 0
-4553 4551 4055 0
-4553 4478 4055 0
4553 -4551 -4478 0
4553 -4551 -4055 0
4553 -4478 -4055 0
-4556 4553 4480 4056 0
-4556 4553 -4480 -4056 0
-4556 -4553 4480 -4056 0
4556 4553 4480 -4056 0
-4556 -4553 -4480 4056 0
4556 4553 -4480 4056 0
4556 -4553 4480 4056 0
4556 -4553 -4480 -4056 0
-4555 4553 4480 0
-4555 4553 4056 0
-4555 4480 4056 0
4555 -4553 -4480 0
4555 -4553 -4056 0
4555 -4480 -4056 0
-4558 4555 4482 4057 0
-4558 4555 -4482 -4057 0
-4558 -4555 4482 -4057 0
4558 4555 4482 -4057 0
-4558 -4555 -4482 4057 0
4558 4555 -4482 4057 0
4558 -4555 4482 4057 0
4558 -4555 -4482 -4057 0
-4557 4555 4482 0
-4557 4555 4057 0
-4557 4482 4057 0
4557 -4555 -4482 0
4557 -4555 -4057 0
4557 -4482 -4057 0
-4560 4557 4484 4058 0
-4560 4557 -4484 -4058 0
-4560 -4557 4484 -4058 0
4560 4557 4484 -4058 0
-4560 -4557 -4484 4058 0
4560 4557 -4484 4058 0
4560 -4557 4484 4058 0
4560 -4557 -4484 -4058 0
-4559 4557 4484 0
-4559 4557 4058 0
-4559 4484 4058 0
4559 -4557 -4484 0
4559 -4557 -4058 0
4559 -4484 -4058 0
-4562 4559 4486 4059 0
-4562 4559 -4486 -4059 0
-4562 -4559 4486 -4059 0
4562 4559 4486 -4059 0
-4562 -4559 -4486 4059 0
4562 4559 -4486 4059 0
4562 -4559 4486 4059 0
4562 -4559 -4486 -4059 0
-4561 4559 4486 0
-4561 4559 4059 0
-4561 4486 4059 0
4561 -4559 -4486 0
4561 -4559 -4059 0
4561 -4486 -4059 0
-4564 4561 4488 4060 0
-4564 4561 -4488 -4060 0
-4564 -4561 4488 -4060 0
4564 4561 4488 -4060 0
-4564 -4561 -4488 4060 0
4564 4561 -4488 4060 0
4564 -4561 4488 4060 0
4564 -4561 -4488 -4060 0
-4563 4561 4488 0
-4563 4561 4060 0
-4563 4488 4060 0
4563 -4561 -4488 0
4563 -4561 -4060 0
4563 -4488 -4060 0
-4566 4563 4490 4061 0
-4566 4563 -4490 -4061 0
-4566 -4563 4490 -4061 0
4566 4563 4490 -4061 0
-4566 -4563 -4490 4061 0
4566 4563 -4490 4061 0
4566 -4563 4490 4061 0
4566 -4563 -4490 -4061 0
-4565 4563 4490 0
-4565 4563 4061 0
-4565 4490 4061 0
4565 -4563 -4490 0
4565 -4563 -4061 0
4565 -4490 -4061 0
-4568 4565 4489 4062 0
-4568 4565 -4489 -4062 0
-4568 -4565 4489 -4062 0
4568 4565 4489 -4062 0
-4568 -4565 -4489 4062 0
4568 4565 -4489 4062 0
4568 -4565 4489 4062 0
4568 -4565 -4489 -4062 0
-4567 4565 4489 0
-4567 4565 4062 0
-4567 4489 4062 0
4567 -4565 -4489 0
4567 -4565 -4062 0
4567 -4489 -4062 0
-4570 4567 4063 0
4570 -4567 4063 0
4570 4567 -4063 0
-4570 -4567 -4063 0
-4569 4567 0
-4569 4063 0
4569 -4567 -4063 0
-4572 4569 4064 0
4572 -4569 4064 0
4572 4569 -4064 0
-4572 -4569 -4064 0
-4571 4569 0
-4571 4064 0
4571 -4569 -4064 0
-4492 4574 0
4492 -4574 0
-4573 0
4494 4573 -4576 0
-4494 -4573 -4576 0
-4494 4573 4576 0
4494 -4573 4576 0
-4575 4573 0
-4575 4494 0
4575 -4573 -4494 0
4496 4575 -4578 0
-4496 -4575 -4578 0
-4496 4575 4578 0
4496 -4575 4578 0
-4577 4575 0
-4577 4496 0
4577 -4575 -4496 0
4498 4577 -4580 0
-4498 -4577 -4580 0
-4498 4577 4580 0
4498 -4577 4580 0
-4579 4577 0
-4579 4498 0
4579 -4577 -4498 0
4500 4579 -4582 0
-4500 -4579 -4582 0
-4500 4579 4582 0
4500 -4579 4582 0
-4581 4579 0
-4581 4500 0
4581 -4579 -4500 0
4502 4581 -4584 0
-4502 -4581 -4584 0
-4502 4581 4584 0
4502 -4581 4584 0
-4583 4581 0
-4583 4502 0
4583 -4581 -4502 0
4504 4583 -4586 0
-4504 -4583 -4586 0
-4504 4583 4586 0
4504 -4583 4586 0
-4585 4583 0
-4585 4504 0
4585 -4583 -4504 0
4506 4585 -4588 0
-4506 -4585 -4588 0
-4506 4585 4588 0
4506 -4585 4588 0
-4587 4585 0
-4587 4506 0
4587 -4585 -4506 0
4508 4587 -4590 0
-4508 -4587 -4590 0
-4508 4587 4590 0
4508 -4587 4590 0
-4589 4587 0
-4589 4508 0
4589 -4587 -4508 0
4510 4589 -4592 0
-4510 -4589 -4592 0
-4510 4589 4592 0
4510 -4589 4592 0
-4591 4589 0
-4591 4510 0
4591 -4589 -4510 0
-4594 4591 4512 4033 0
-4594 4591 -4512 -4033 0
-4594 -4591 4512 -4033 0
4594 4591 4512 -4033 0
-4594 -4591 -4512 4033 0
4594 4591 -4512 4033 0
4594 -4591 4512 4033 0
4594 -4591 -4512 -4033 0
-4593 4591 4512 0
-4593 4591 4033 0
-4593 4512 4033 0
4593 -4591 -4512 0
4593 -4591 -4033 0
4593 -4512 -4033 0
-4596 4593 4514 4034 0
-4596 4593 -4514 -4034 0
-4596 -4593 4514 -4034 0
4596 4593 4514 -4034 0
-4596 -4593 -4514 4034 0
4596 4593 -4514 4034 0
4596 -4593 4514 4034 0
4596 -4593 -4514 -4034 0
-4595 4593 4514 0
-4595 4593 4034 0
-4595 4514 4034 0
4595 -4593 -4514 0
4595 -4593 -4034 0
4595 -4514 -4034 0
-4598 4595 4516 4035 0
-4598 4595 -4516 -4035 0
-4598 -4595 4516 -4035 0
4598 4595 4516 -4035 0
-4598 -4595 -4516 4035 0
4598 4595 -4516 4035 0
4598 -4595 4516 4035 0
4598 -4595 -4516 -4035 0
-4597 4595 4516 0
-4597 4595 4035 0
-4597 4516 4035 0
4597 -4595 -4516 0
4597 -4595 -4035 0
4597 -4516 -4035 0
-4600 4597 4518 4036 0
-4600 4597 -4518 -4036 0
-4600 -4597 4518 -4036 0
4600 4597 4518 -4036 0
-4600 -4597 -4518 4036 0
4600 4597 -4518 4036 0
4600 -4597 4518 4036 0
4600 -4597 -4518 -4036 0
-4599 4597 4518 0
-4599 4597 4036 0
-4599 4518 4036 0
4599 -4597 -4518 0
4599 -4597 -4036 0
4599 -4518 -4036 0
-4602 4599 4520 4037 0
-4602 4599 -4520 -4037 0
-4602 -4599 4520 -4037 0
4602 4599 4520 -4037 0
-4602 -4599 -4520 4037 0
4602 4599 -4520 4037 0
4602 -4599 4520 4037 0
4602 -4599 -4520 -4037 0
-4601 4599 4520 0
-4601 4599 4037 0
-4601 4520 4037 0
4601 -4599 -4520 0
4601 -4599 -4037 0
4601 -4520 -4037 0
-4604 4601 4522 4038 0
-4604 4601 -4522 -4038 0
-4604 -4601 4522 -4038 0
4604 4601 4522 -4038 0
-4604 -4601 -4522 4038 0
4604 4601 -4522 4038 0
4604 -4601 4522 4038 0
4604 -4601 -4522 -4038 0
-4603 4601 4522 0
-4603 4601 4038 0
-4603 4522 4038 0
4603 -4601 -4522 0
4603 -4601 -4038 0
4603 -4522 -4038 0
-4606 4603 4524 4039 0
-4606 4603 -4524 -4039 0
-4606 -4603 4524 -4039 0
4606 4603 4524 -4039 0
-4606 -4603 -4524 4039 0
4606 4603 -4524 4039 0
4606 -4603 4524 4039 0
4606 -4603 -4524 -4039 0
-4605 4603 4524 0
-4605 4603 4039 0
-4605 4524 4039 0
4605 -4603 -4524 0
4605 -4603 -4039 0
4605 -4524 -4039 0
-4608 4605 4526 4040 0
-4608 4605 -4526 -4040 0
-4608 -4605 4526 -4040 0
4608 4605 4526 -4040 0
-4608 -4605 -4526 4040 0
4608 4605 -4526 4040 0
4608 -4605 4526 4040 0
4608 -4605 -4526 -4040 0
-4607 4605 4526 0
-4607 4605 4040 0
-4607 4526 4040 0
4607 -4605 -4526 0
4607 -4605 -4040 0
4607 -4526 -4040 0
-4610 4607 4528 4041 0
-4610 4607 -4528 -4041 0
-4610 -4607 4528 -4041 0
4610 4607 4528 -4041 0
-4610 -4607 -4528 4041 0
4610 4607 -4528 4041 0
4610 -4607 4528 4041 0
4610 -4607 -4528 -4041 0
-4609 4607 4528 0
-4609 4607 4041 0
-4609 4528 4041 0
4609 -4607 -4528 0
4609 -4607 -4041 0
4609 -4528 -4041 0
-4612 4609 4530 4042 0
-4612 4609 -4530 -4042 0
-4612 -4609 4530 -4042 0
4612 4609 4530 -4042 0
-4612 -4609 -4530 4042 0
4612 4609 -4530 4042 0
4612 -4609 4530 4042 0
4612 -4609 -4530 -4042 0
-4611 4609 4530 0
-4611 4609 4042 0
-4611 4530 4042 0
4611 -4609 -4530 0
4611 -4609 -4042 0
4611 -4530 -4042 0
-4614 4611 4532 4043 0
-4614 4611 -4532 -4043 0
-4614 -4611 4532 -4043 0
4614 4611 4532 -4043 0
-4614 -4611 -4532 4043 0
4614 4611 -4532 4043 0
4614 -4611 4532 4043 0
4614 -4611 -4532 -4043 0
-4613 4611 4532 0
-4613 4611 4043 0
-4613 4532 4043 0
4613 -4611 -4532 0
4613 -4611 -4043 0
4613 -4532 -4043 0
-4616 4613 4534 4044 0
-4616 4613 -4534 -4044 0
-4616 -4613 4534 -4044 0
4616 4613 4534 -4044 0
-4616 -4613 -4534 4044 0
4616 4613 -4534 4044 0
4616 -4613 4534 4044 0
4616 -4613 -4534 -4044 0
-4615 4613 4534 0
-4615 4613 4044 0
-4615 4534 4044 0
4615 -4613 -4534 0
4615 -4613 -4044 0
4615 -4534 -4044 0
-4618 4615 4536 4045 0
-4618 4615 -4536 -4045 0
-4618 -4615 4536 -4045 0
4618 4615 4536 -4045 0
-4618 -4615 -4536 4045 0
4618 4615 -4536 4045 0
4618 -4615 4536 4045 0
4618 -4615 -4536 -4045 0
-4617 4615 4536 0
-4617 4615 4045 0
-4617 4536 4045 0
4617 -4615 -4536 0
4617 -4615 -4045 0
4617 -4536 -4045 0
-4620 4617 4538 4046 0
-4620 4617 -4538 -4046 0
-4620 -4617 4538 -4046 0
4620 4617 4538 -4046 0
-4620 -4617 -4538 4046 0
4620 4617 -4538 4046 0
4620 -4617 4538 4046 0
4620 -4617 -4538 -4046 0
-4619 4617 4538 0
-4619 4617 4046 0
-4619 4538 4046 0
4619 -4617 -4538 0
4619 -4617 -4046 0
4619 -4538 -4046 0
-4622 4619 4540 4047 0
-4622 4619 -4540 -4047 0
-4622 -4619 4540 -4047 0
4622 4619 4540 -4047 0
-4622 -4619 -4540 4047 0
4622 4619 -4540 4047 0
4622 -4619 4540 4047 0
4622 -4619 -4540 -4047 0
-4621 4619 4540 0
-4621 4619 4047 0
-4621 4540 4047 0
4621 -4619 -4540 0
4621 -4619 -4047 0
4621 -4540 -4047 0
-4624 4621 4542 4048 0
-4624 4621 -4542 -4048 0
-4624 -4621 4542 -4048 0
4624 4621 4542 -4048 0
-4624 -4621 -4542 4048 0
4624 4621 -4542 4048 0
4624 -4621 4542 4048 0
4624 -4621 -4542 -4048 0
-4623 4621 4542 0
-4623 4621 4048 0
-4623 4542 4048 0
4623 -4621 -4542 0
4623 -4621 -4048 0
4623 -4542 -4048 0
-4626 4623 4544 4049 0
-4626 4623 -4544 -4049 0
-4626 -4623 4544 -4049 0
4626 4623 4544 -4049 0
-4626 -4623 -4544 4049 0
4626 4623 -4544 4049 0
4626 -4623 4544 4049 0
4626 -4623 -4544 -4049 0
-4625 4623 4544 0
-4625 4623 4049 0
-4625 4544 4049 0
4625 -4623 -4544 0
4625 -4623 -4049 0
4625 -4544 -4049 0
-4628 4625 4546 4050 0
-4628 4625 -4546 -4050 0
-4628 -4625 4546 -4050 0
4628 4625 4546 -4050 0
-4628 -4625 -4546 4050 0
4628 4625 -4546 4050 0
4628 -4625 4546 4050 0
4628 -4625 -4546 -4050 0
-4627 4625 4546 0
-4627 4625 4050 0
-4627 4546 4050 0
4627 -4625 -4546 0
4627 -4625 -4050 0
4627 -4546 -4050 0
-4630 4627 4548 4051 0
-4630 4627 -4548 -4051 0
-4630 -4627 4548 -4051 0
4630 4627 4548 -4051 0
-4630 -4627 -4548 4051 0
4630 4627 -4548 4051 0
4630 -4627 4548 4051 0
4630 -4627 -4548 -4051 0
-4629 4627 4548 0
-4629 4627 4051 0
-4629 4548 4051 0
4629 -4627 -4548 0
4629 -4627 -4051 0
4629 -4548 -4051 0
-4632 4629 4550 4052 0
-4632 4629 -4550 -4052 0
-4632 -4629 4550 -4052 0
4632 4629 4550 -4052 0
-4632 -4629 -4550 4052 0
4632 4629 -4550 4052 0
4632 -4629 4550 4052 0
4632 -4629 -4550 -4052 0
-4631 4629 4550 0
-4631 4629 4052 0
-4631 4550 4052 0
4631 -4629 -4550 0
4631 -4629 -4052 0
4631 -4550 -4052 0
-4634 4631 4552 4053 0
-4634 4631 -4552 -4053 0
-4634 -4631 4552 -4053 0
4634 4631 4552 -4053 0
-4634 -4631 -4552 4053 0
4634 4631 -4552 4053 0
4634 -4631 4552 4053 0
4634 -4631 -4552 -4053 0
-4633 4631 4552 0
-4633 4631 4053 0
-4633 4552 4053 0
4633 -4631 -4552 0
4633 -4631 -4053 0
4633 -4552 -4053 0
-4636 4633 4554 4054 0
-4636 4633 -4554 -4054 0
-4636 -4633 4554 -4054 0
4636 4633 4554 -4054 0
-4636 -4633 -4554 4054 0
4636 4633 -4554 4054 0
4636 -4633 4554 4054 0
4636 -4633 -4554 -4054 0
-4635 4633 4554 0
-4635 4633 4054 0
-4635 4554 4054 0
4635 -4633 -4554 0
4635 -4633 -4054 0
4635 -4554 -4054 0
-4638 4635 4556 4055 0
-4638 4635 -4556 -4055 0
-4638 -4635 4556 -4055 0
4638 4635 4556 -4055 0
-4638 -4635 -4556 4055 0
4638 4635 -4556 4055 0
4638 -4635 4556 4055 0
4638 -4635 -4556 -4055 0
-4637 4635 4556 0
-4637 4635 4055 0
-4637 4556 4055 0
4637 -4635 -4556 0
4637 -4635 -4055 0
4637 -4556 -4055 0
-4640 4637 4558 4056 0
-4640 4637 -4558 -4056 0
-4640 -4637 4558 -4056 0
4640 4637 4558 -4056 0
-4640 -4637 -4558 4056 0
4640 4637 -4558 4056 0
4640 -4637 4558 4056 0
4640 -4637 -4558 -4056 0
-4639 4637 4558 0
-4639 4637 4056 0
-4639 4558 4056 0
4639 -4637 -4558 0
4639 -4637 -4056 0
4639 -4558 -4056 0
-4642 4639 4560 4057 0
-4642 4639 -4560 -4057 0
-4642 -4639 4560 -4057 0
4642 4639 4560 -4057 0
-4642 -4639 -4560 4057 0
4642 4639 -4560 4057 0
4642 -4639 4560 4057 0
4642 -4639 -4560 -4057 0
-4641 4639 4560 0
-4641 4639 4057 0
-4641 4560 4057 0
4641 -4639 -4560 0
4641 -4639 -4057 0
4641 -4560 -4057 0
-4644 4641 4562 4058 0
-4644 4641 -4562 -4058 0
-4644 -4641 4562 -4058 0
4644 4641 4562 -4058 0
-4644 -4641 -4562 4058 0
4644 4641 -4562 4058 0
4644 -4641 4562 4058 0
4644 -4641 -4562 -4058 0
-4643 4641 4562 0
-4643 4641 4058 0
-4643 4562 4058 0
4643 -4641 -4562 0
4643 -4641 -4058 0
4643 -4562 -4058 0
-4646 4643 4564 4059 0
-4646 4643 -4564 -4059 0
-4646 -4643 4564 -4059 0
4646 4643 4564 -4059 0
-4646 -4643 -4564 4059 0
4646 4643 -4564 4059 0
4646 -4643 4564 4059 0
4646 -4643 -4564 -4059 0
-4645 4643 4564 0
-4645 4643 4059 0
-4645 4564 4059 0
4645 -4643 -4564 0
4645 -4643 -4059 0
4645 -4564 -4059 0
-4648 4645 4566 4060 0
-4648 4645 -4566 -4060 0
-4648 -4645 4566 -4060 0
4648 4645 4566 -4060 0
-4648 -4645 -4566 4060 0
4648 4645 -4566 4060 0
4648 -4645 4566 4060 0
4648 -4645 -4566 -4060 0
-4647 4645 4566 0
-4647 4645 4060 0
-4647 4566 4060 0
4647 -4645 -4566 0
4647 -4645 -4060 0
4647 -4566 -4060 0
-4650 4647 4568 4061 0
-4650 4647 -4568 -4061 0
-4650 -4647 4568 -4061 0
4650 4647 4568 -4061 0
-4650 -4647 -4568 4061 0
4650 4647 -4568 4061 0
4650 -4647 4568 4061 0
4650 -4647 -4568 -4061 0
-4649 4647 4568 0
-4649 4647 4061 0
-4649 4568 4061 0
4649 -4647 -4568 0
4649 -4647 -4061 0
4649 -4568 -4061 0
-4652 4649 4570 4062 0
-4652 4649 -4570 -4062 0
-4652 -4649 4570 -4062 0
4652 4649 4570 -4062 0
-4652 -4649 -4570 4062 0
4652 4649 -4570 4062 0
4652 -4649 4570 4062 0
4652 -4649 -4570 -4062 0
-4651 4649 4570 0
-4651 4649 4062 0
-4651 4570 4062 0
4651 -4649 -4570 0
4651 -4649 -4062 0
4651 -4570 -4062 0
-4654 4651 4572 4063 0
-4654 4651 -4572 -4063 0
-4654 -4651 4572 -4063 0
4654 4651 4572 -4063 0
-4654 -4651 -4572 4063 0
4654 4651 -4572 4063 0
4654 -4651 4572 4063 0
4654 -4651 -4572 -4063 0
-4653 4651 4572 0
-4653 4651 4063 0
-4653 4572 4063 0
4653 -4651 -4572 0
4653 -4651 -4063 0
4653 -4572 -4063 0
-4656 4653 4571 4064 0
-4656 4653 -4571 -4064 0
-4656 -4653 4571 -4064 0
4656 4653 4571 -4064 0
-4656 -4653 -4571 4064 0
4656 4653 -4571 4064 0
4656 -4653 4571 4064 0
4656 -4653 -4571 -4064 0
-4655 4653 4571 0
-4655 4653 4064 0
-4655 4571 4064 0
4655 -4653 -4571 0
4655 -4653 -4064 0
4655 -4571 -4064 0
-4574 4658 0
4574 -4658 0
-4657 0
4576 4657 -4660 0
-4576 -4657 -4660 0
-4576 4657 4660 0
4576 -4657 4660 0
-4659 4657 0
-4659 4576 0
4659 -4657 -4576 0
4578 4659 -4662 0
-4578 -4659 -4662 0
-4578 4659 4662 0
4578 -4659 4662 0
-4661 4659 0
-4661 4578 0
4661 -4659 -4578 0
4580 4661 -4664 0
-4580 -4661 -4664 0
-4580 4661 4664 0
4580 -4661 4664 0
-4663 4661 0
-4663 4580 0
4663 -4661 -4580 0
4582 4663 -4666 0
-4582 -4663 -4666 0
-4582 4663 4666 0
4582 -4663 4666 0
-4665 4663 0
-4665 4582 0
4665 -4663 -4582 0
4584 4665 -4668 0
-4584 -4665 -4668 0
-4584 4665 4668 0
4584 -4665 4668 0
-4667 4665 0
-4667 4584 0
4667 -4665 -4584 0
4586 4667 -4670 0
-4586 -4667 -4670 0
-4586 4667 4670 0
4586 -4667 4670 0
-4669 4667 0
-4669 4586 0
4669 -4667 -4586 0
4588 4669 -4672 0
-4588 -4669 -4672 0
-4588 4669 4672 0
4588 -4669 4672 0
-4671 4669 0
-4671 4588 0
4671 -4669 -4588 0
4590 4671 -4674 0
-4590 -4671 -4674 0
-4590 4671 4674 0
4590 -4671 4674 0
-4673 4671 0
-4673 4590 0
4673 -4671 -4590 0
4592 4673 -4676 0
-4592 -4673 -4676 0
-4592 4673 4676 0
4592 -4673 4676 0
-4675 4673 0
-4675 4592 0
4675 -4673 -4592 0
4594 4675 -4678 0
-4594 -4675 -4678 0
-4594 4675 4678 0
4594 -4675 4678 0
-4677 4675 0
-4677 4594 0
4677 -4675 -4594 0
4596 4677 -4680 0
-4596 -4677 -4680 0
-4596 4677 4680 0
4596 -4677 4680 0
-4679 4677 0
-4679 4596 0
4679 -4677 -4596 0
4598 4679 -4682 0
-4598 -4679 -4682 0
-4598 4679 4682 0
4598 -4679 4682 0
-4681 4679 0
-4681 4598 0
4681 -4679 -4598 0
-4684 4681 4600 4033 0
-4684 4681 -4600 -4033 0
-4684 -4681 4600 -4033 0
4684 4681 4600 -4033 0
-4684 -4681 -4600 4033 0
4684 4681 -4600 4033 0
4684 -4681 4600 4033 0
4684 -4681 -4600 -4033 0
-4683 4681 4600 0
-4683 4681 4033 0
-4683 4600 4033 0
4683 -4681 -4600 0
4683 -4681 -4033 0
4683 -4600 -4033 0
-4686 4683 4602 4034 0
-4686 4683 -4602 -4034 0
-4686 -4683 4602 -4034 0
4686 4683 4602 -4034 0
-4686 -4683 -4602 4034 0
4686 4683 -4602 4034 0
4686 -4683 4602 4034 0
4686 -4683 -4602 -4034 0
-4685 4683 4602 0
-4685 4683 4034 0
-4685 4602 4034 0
4685 -4683 -4602 0
4685 -4683 -4034 0
4685 -4602 -4034 0
-4688 4685 4604 4035 0
-4688 4685 -4604 -4035 0
-4688 -4685 4604 -4035 0
4688 4685 4604 -4035 0
-4688 -4685 -4604 4035 0
4688 4685 -4604 4035 0
4688 -4685 4604 4035 0
4688 -4685 -4604 -4035 0
-4687 4685 4604 0
-4687 4685 4035 0
-4687 4604 4035 0
4687 -4685 -4604 0
4687 -4685 -4035 0
4687 -4604 -4035 0
-4690 4687 4606 4036 0
-4690 4687 -4606 -4036 0
-4690 -4687 4606 -4036 0
4690 4687 4606 -4036 0
-4690 -4687 -4606 4036 0
4690 4687 -4606 4036 0
4690 -4687 4606 4036 0
4690 -4687 -4606 -4036 0
-4689 4687 4606 0
-4689 4687 4036 0
-4689 4606 4036 0
4689 -4687 -4606 0
4689 -4687 -4036 0
4689 -4606 -4036 0
-4692 4689 4608 4037 0
-4692 4689 -4608 -4037 0
-4692 -4689 4608 -4037 0
4692 4689 4608 -4037 0
-4692 -4689 -4608 4037 0
4692 4689 -4608 4037 0
4692 -4689 4608 4037 0
4692 -4689 -4608 -4037 0
-4691 4689 4608 0
-4691 4689 4037 0
-4691 4608 4037 0
4691 -4689 -4608 0
4691 -4689 -4037 0
4691 -4608 -4037 0
-4694 4691 4610 4038 0
-4694 4691 -4610 -4038 0
-4694 -4691 4610 -4038 0
4694 4691 4610 -4038 0
-4694 -4691 -4610 4038 0
4694 4691 -4610 4038 0
4694 -4691 4610 4038 0
4694 -4691 -4610 -4038 0
-4693 4691 4610 0
-4693 4691 4038 0
-4693 4610 4038 0
4693 -4691 -4610 0
4693 -4691 -4038 0
4693 -4610 -4038 0
-4696 4693 4612 4039 0
-4696 4693 -4612 -4039 0
-4696 -4693 4612 -4039 0
4696 4693 4612 -4039 0
-4696 -4693 -4612 4039 0
4696 4693 -4612 4039 0
4696 -4693 4612 4039 0
4696 -4693 -4612 -4039 0
-4695 4693 4612 0
-4695 4693 4039 0
-4695 4612 4039 0
4695 -4693 -4612 0
4695 -4693 -4039 0
4695 -4612 -4039 0
-4698 4695 4614 4040 0
-4698 4695 -4614 -4040 0
-4698 -4695 4614 -4040 0
4698 4695 4614 -4040 0
-4698 -4695 -4614 4040 0
4698 4695 -4614 4040 0
4698 -4695 4614 4040 0
4698 -4695 -4614 -4040 0
-4697 4695 4614 0
-4697 4695 4040 0
-4697 4614 4040 0
4697 -4695 -4614 0
4697 -4695 -4040 0
4697 -4614 -4040 0
-4700 4697 4616 4041 0
-4700 4697 -4616 -4041 0
-4700 -4697 4616 -4041 0
4700 4697 4616 -4041 0
-4700 -4697 -4616 4041 0
4700 4697 -4616 4041 0
4700 -4697 4616 4041 0
4700 -4697 -4616 -4041 0
-4699 4697 4616 0
-4699 4697 4041 0
-4699 4616 4041 0
4699 -4697 -4616 0
4699 -4697 -4041 0
4699 -4616 -4041 0
-4702 4699 4618 4042 0
-4702 4699 -4618 -4042 0
-4702 -4699 4618 -4042 0
4702 4699 4618 -4042 0
-4702 -4699 -4618 4042 0
4702 4699 -4618 4042 0
4702 -4699 4618 4042 0
4702 -4699 -4618 -4042 0
-4701 4699 4618 0
-4701 4699 4042 0
-4701 4618 4042 0
4701 -4699 -4618 0
4701 -4699 -4042 0
4701 -4618 -4042 0
-4704 4701 4620 4043 0
-4704 4701 -4620 -4043 0
-4704 -4701 4620 -4043 0
4704 4701 4620 -4043 0
-4704 -4701 -4620 4043 0
4704 4701 -4620 4043 0
4704 -4701 4620 4043 0
4704 -4701 -4620 -4043 0
-4703 4701 4620 0
-4703 4701 4043 0
-4703 4620 4043 0
4703 -4701 -4620 0
4703 -4701 -4043 0
4703 -4620 -4043 0
-4706 4703 4622 4044 0
-4706 4703 -4622 -4044 0
-4706 -4703 4622 -4044 0
4706 4703 4622 -4044 0
-4706 -4703 -4622 4044 0
4706 4703 -4622 4044 0
4706 -4703 4622 4044 0
4706 -4703 -4622 -4044 0
-4705 4703 4622 0
-4705 4703 4044 0
-4705 4622 4044 0
4705 -4703 -4622 0
4705 -4703 -4044 0
4705 -4622 -4044 0
-4708 4705 4624 4045 0
-4708 4705 -4624 -4045 0
-4708 -4705 4624 -4045 0
4708 4705 4624 -4045 0
-4708 -4705 -4624 4045 0
4708 4705 -4624 4045 0
4708 -4705 4624 4045 0
4708 -4705 -4624 -4045 0
-4707 4705 4624 0
-4707 4705 4045 0
-4707 4624 4045 0
4707 -4705 -4624 0
4707 -4705 -4045 0
4707 -4624 -4045 0
-4710 4707 4626 4046 0
-4710 4707 -4626 -4046 0
-4710 -4707 4626 -4046 0
4710 4707 4626 -4046 0
-4710 -4707 -4626 4046 0
4710 4707 -4626 4046 0
4710 -4707 4626 4046 0
4710 -4707 -4626 -4046 0
-4709 4707 4626 0
-4709 4707 4046 0
-4709 4626 4046 0
4709 -4707 -4626 0
4709 -4707 -4046 0
4709 -4626 -4046 0
-4712 4709 4628 4047 0
-4712 4709 -4628 -4047 0
-4712 -4709 4628 -4047 0
4712 4709 4628 -4047 0
-4712 -4709 -4628 4047 0
4712 4709 -4628 4047 0
4712 -4709 4628 4047 0
4712 -4709 -4628 -4047 0
-4711 4709 4628 0
-4711 4709 4047 0
-4711 4628 4047 0
4711 -4709 -4628 0
4711 -4709 -4047 0
4711 -4628 -4047 0
-4714 4711 4630 4048 0
-4714 4711 -4630 -4048 0
-4714 -4711 4630 -4048 0
4714 4711 4630 -4048 0
-4714 -4711 -4630 4048 0
4714 4711 -4630 4048 0
4714 -4711 4630 4048 0
4714 -4711 -4630 -4048 0
-4713 4711 4630 0
-4713 4711 4048 0
-4713 4630 4048 0
4713 -4711 -4630 0
4713 -4711 -4048 0
4713 -4630 -4048 0
-4716 4713 4632 4049 0
-4716 4713 -4632 -4049 0
-4716 -4713 4632 -4049 0
4716 4713 4632 -4049 0
-4716 -4713 -4632 4049 0
4716 4713 -4632 4049 0
4716 -4713 4632 4049 0
4716 -4713 -4632 -4049 0
-4715 4713 4632 0
-4715 4713 4049 0
-4715 4632 4049 0
4715 -4713 -4632 0
4715 -4713 -4049 0
4715 -4632 -4049 0
-4718 4715 4634 4050 0
-4718 4715 -4634 -4050 0
-4718 -4715 4634 -4050 0
4718 4715 4634 -4050 0
-4718 -4715 -4634 4050 0
4718 4715 -4634 4050 0
4718 -4715 4634 4050 0
4718 -4715 -4634 -4050 0
-4717 4715 4634 0
-4717 4715 4050 0
-4717 4634 4050 0
4717 -4715 -4634 0
4717 -4715 -4050 0
4717 -4634 -4050 0
-4720 4717 4636 4051 0
-4720 4717 -4636 -4051 0
-4720 -4717 4636 -4051 0
4720 4717 4636 -4051 0
-4720 -4717 -4636 4051 0
4720 4717 -4636 4051 0
4720 -4717 4636 4051 0
4720 -4717 -4636 -4051 0
-4719 4717 4636 0
-4719 4717 4051 0
-4719 4636 4051 0
4719 -4717 -4636 0
4719 -4717 -4051 0
4719 -4636 -4051 0
-4722 4719 4638 4052 0
-4722 4719 -4638 -4052 0
-4722 -4719 4638 -4052 0
4722 4719 4638 -4052 0
-4722 -4719 -4638 4052 0
4722 4719 -4638 4052 0
4722 -4719 4638 4052 0
4722 -4719 -4638 -4052 0
-4721 4719 4638 0
-4721 4719 4052 0
-4721 4638 4052 0
4721 -4719 -4638 0
4721 -4719 -4052 0
4721 -4638 -4052 0
-4724 4721 4640 4053 0
-4724 4721 -4640 -4053 0
-4724 -4721 4640 -4053 0
4724 4721 4640 -4053 0
-4724 -4721 -4640 4053 0
4724 4721 -4640 4053 0
4724 -4721 4640 4053 0
4724 -4721 -4640 -4053 0
-4723 4721 4640 0
-4723 4721 4053 0
-4723 4640 4053 0
4723 -4721 -4640 0
4723 -4721 -4053 0
4723 -4640 -4053 0
-4726 4723 4642 4054 0
-4726 4723 -4642 -4054 0
-4726 -4723 4642 -4054 0
4726 4723 4642 -4054 0
-4726 -4723 -4642 4054 0
4726 4723 -4642 4054 0
4726 -4723 4642 4054 0
4726 -4723 -4642 -4054 0
-4725 4723 4642 0
-4725 4723 4054 0
-4725 4642 4054 0
4725 -4723 -4642 0
4725 -4723 -4054 0
4725 -4642 -4054 0
-4728 4725 4644 4055 0
-4728 4725 -4644 -4055 0
-4728 -4725 4644 -4055 0
4728 4725 4644 -4055 0
-4728 -4725 -4644 4055 0
4728 4725 -4644 4055 0
4728 -4725 4644 4055 0
4728 -4725 -4644 -4055 0
-4727 4725 4644 0
-4727 4725 4055 0
-4727 4644 4055 0
4727 -4725 -4644 0
4727 -4725 -4055 0
4727 -4644 -4055 0
-4730 4727 4646 4056 0
-4730 4727 -4646 -4056 0
-4730 -4727 4646 -4056 0
4730 4727 4646 -4056 0
-4730 -4727 -4646 4056 0
4730 4727 -4646 4056 0
4730 -4727 4646 4056 0
4730 -4727 -4646 -4056 0
-4729 4727 4646 0
-4729 4727 4056 0
-4729 4646 4056 0
4729 -4727 -4646 0
4729 -4727 -4056 0
4729 -4646 -4056 0
-4732 4729 4648 4057 0
-4732 4729 -4648 -4057 0
-4732 -4729 4648 -4057 0
4732 4729 4648 -4057 0
-4732 -4729 -4648 4057 0
4732 4729 -4648 4057 0
4732 -4729 4648 4057 0
4732 -4729 -4648 -4057 0
-4731 4729 4648 0
-4731 4729 4057 0
-4731 4648 4057 0
4731 -4729 -4648 0
4731 -4729 -4057 0
4731 -4648 -4057 0
-4734 4731 4650 4058 0
-4734 4731 -4650 -4058 0
-4734 -4731 4650 -4058 0
4734 4731 4650 -4058 0
-4734 -4731 -4650 4058 0
4734 4731 -4650 4058 0
4734 -4731 4650 4058 0
4734 -4731 -4650 -4058 0
-4733 4731 4650 0
-4733 4731 4058 0
-4733 4650 4058 0
4733 -4731 -4650 0
4733 -4731 -4058 0
4733 -4650 -4058 0
-4736 4733 4652 4059 0
-4736 4733 -4652 -4059 0
-4736 -4733 4652 -4059 0
4736 4733 4652 -4059 0
-4736 -4733 -4652 4059 0
4736 4733 -4652 4059 0
4736 -4733 4652 4059 0
4736 -4733 -4652 -4059 0
-4735 4733 4652 0
-4735 4733 4059 0
-4735 4652 4059 0
4735 -4733 -4652 0
4735 -4733 -4059 0
4735 -4652 -4059 0
-4738 4735 4654 4060 0
-4738 4735 -4654 -4060 0
-4738 -4735 4654 -4060 0
4738 4735 4654 -4060 0
-4738 -4735 -4654 4060 0
4738 4735 -4654 4060 0
4738 -4735 4654 4060 0
4738 -4735 -4654 -4060 0
-4737 4735 4654 0
-4737 4735 4060 0
-4737 4654 4060 0
4737 -4735 -4654 0
4737 -4735 -4060 0
4737 -4654 -4060 0
-4740 4737 4656 4061 0
-4740 4737 -4656 -4061 0
-4740 -4737 4656 -4061 0
4740 4737 4656 -4061 0
-4740 -4737 -4656 4061 0
4740 4737 -4656 4061 0
4740 -4737 4656 4061 0
4740 -4737 -4656 -4061 0
-4739 4737 4656 0
-4739 4737 4061 0
-4739 4656 4061 0
4739 -4737 -4656 0
4739 -4737 -4061 0
4739 -4656 -4061 0
-4742 4739 4655 4062 0
-4742 4739 -4655 -4062 0
-4742 -4739 4655 -4062 0
4742 4739 4655 -4062 0
-4742 -4739 -4655 4062 0
4742 4739 -4655 4062 0
4742 -4739 4655 4062 0
4742 -4739 -4655 -4062 0
-4741 4739 4655 0
-4741 4739 4062 0
-4741 4655 4062 0
4741 -4739 -4655 0
4741 -4739 -4062 0
4741 -4655 -4062 0
-4744 4741 4063 0
4744 -4741 4063 0
4744 4741 -4063 0
-4744 -4741 -4063 0
-4743 4741 0
-4743 4063 0
4743 -4741 -4063 0
-4746 4743 4064 0
4746 -4743 4064 0
4746 4743 -4064 0
-4746 -4743 -4064 0
-4745 4743 0
-4745 4064 0
4745 -4743 -4064 0
-4658 4748 0
4658 -4748 0
-4747 0
4660 4747 -4750 0
-4660 -4747 -4750 0
-4660 4747 4750 0
4660 -4747 4750 0
-4749 4747 0
-4749 4660 0
4749 -4747 -4660 0
4662 4749 -4752 0
-4662 -4749 -4752 0
-4662 4749 4752 0
4662 -4749 4752 0
-4751 4749 0
-4751 4662 0
4751 -4749 -4662 0
4664 4751 -4754 0
-4664 -4751 -4754 0
-4664 4751 4754 0
4664 -4751 4754 0
-4753 4751 0
-4753 4664 0
4753 -4751 -4664 0
4666 4753 -4756 0
-4666 -4753 -4756 0
-4666 4753 4756 0
4666 -4753 4756 0
-4755 4753 0
-4755 4666 0
4755 -4753 -4666 0
4668 4755 -4758 0
-4668 -4755 -4758 0
-4668 4755 4758 0
4668 -4755 4758 0
-4757 4755 0
-4757 4668 0
4757 -4755 -4668 0
4670 4757 -4760 0
-4670 -4757 -4760 0
-4670 4757 4760 0
4670 -4757 4760 0
-4759 4757 0
-4759 4670 0
4759 -4757 -4670 0
4672 4759 -4762 0
-4672 -4759 -4762 0
-4672 4759 4762 0
4672 -4759 4762 0
-4761 4759 0
-4761 4672 0
4761 -4759 -4672 0
4674 4761 -4764 0
-4674 -4761 -4764 0
-4674 4761 4764 0
4674 -4761 4764 0
-4763 4761 0
-4763 4674 0
4763 -4761 -4674 0
4676 4763 -4766 0
-4676 -4763 -4766 0
-4676 4763 4766 0
4676 -4763 4766 0
-4765 4763 0
-4765 4676 0
4765 -4763 -4676 0
4678 4765 -4768 0
-4678 -4765 -4768 0
-4678 4765 4768 0
4678 -4765 4768 0
-4767 4765 0
-4767 4678 0
4767 -4765 -4678 0
4680 4767 -4770 0
-4680 -4767 -4770 0
-4680 4767 4770 0
4680 -4767 4770 0
-4769 4767 0
-4769 4680 0
4769 -4767 -4680 0
4682 4769 -4772 0
-4682 -4769 -4772 0
-4682 4769 4772 0
4682 -4769 4772 0
-4771 4769 0
-4771 4682 0
4771 -4769 -4682 0
4684 4771 -4774 0
-4684 -4771 -4774 0
-4684 4771 4774 0
4684 -4771 4774 0
-4773 4771 0
-4773 4684 0
4773 -4771 -4684 0
-4776 4773 4686 4033 0
-4776 4773 -4686 -4033 0
-4776 -4773 4686 -4033 0
4776 4773 4686 -4033 0
-4776 -4773 -4686 4033 0
4776 4773 -4686 4033 0
4776 -4773 4686 4033 0
4776 -4773 -4686 -4033 0
-4775 4773 4686 0
-4775 4773 4033 0
-4775 4686 4033 0
4775 -4773 -4686 0
4775 -4773 -4033 0
4775 -4686 -4033 0
-4778 4775 4688 4034 0
-4778 4775 -4688 -4034 0
-4778 -4775 4688 -4034 0
4778 4775 4688 -4034 0
-4778 -4775 -4688 4034 0
4778 4775 -4688 4034 0
4778 -4775 4688 4034 0
4778 -4775 -4688 -4034 0
-4777 4775 4688 0
-4777 4775 4034 0
-4777 4688 4034 0
4777 -4775 -4688 0
4777 -4775 -4034 0
4777 -4688 -4034 0
-4780 4777 4690 4035 0
-4780 4777 -4690 -4035 0
-4780 -4777 4690 -4035 0
4780 4777 4690 -4035 0
-4780 -4777 -4690 4035 0
4780 4777 -4690 4035 0
4780 -4777 4690 4035 0
4780 -4777 -4690 -4035 0
-4779 4777 4690 0
-4779 4777 4035 0
-4779 4690 4035 0
4779 -4777 -4690 0
4779 -4777 -4035 0
4779 -4690 -4035 0
-4782 4779 4692 4036 0
-4782 4779 -4692 -4036 0
-4782 -4779 4692 -4036 0
4782 4779 4692 -4036 0
-4782 -4779 -4692 4036 0
4782 4779 -4692 4036 0
4782 -4779 4692 4036 0
4782 -4779 -4692 -4036 0
-4781 4779 4692 0
-4781 4779 4036 0
-4781 4692 4036 0
4781 -4779 -4692 0
4781 -4779 -4036 0
4781 -4692 -4036 0
-4784 4781 4694 4037 0
-4784 4781 -4694 -4037 0
-4784 -4781 4694 -4037 0
4784 4781 4694 -4037 0
-4784 -4781 -4694 4037 0
4784 4781 -4694 4037 0
4784 -4781 4694 4037 0
4784 -4781 -4694 -4037 0
-4783 4781 4694 0
-4783 4781 4037 0
-4783 4694 4037 0
4783 -4781 -4694 0
4783 -4781 -4037 0
4783 -4694 -4037 0
-4786 4783 4696 4038 0
-4786 4783 -4696 -4038 0
-4786 -4783 4696 -4038 0
4786 4783 4696 -4038 0
-4786 -4783 -4696 4038 0
4786 4783 -4696 4038 0
4786 -4783 4696 4038 0
4786 -4783 -4696 -4038 0
-4785 4783 4696 0
-4785 4783 4038 0
-4785 4696 4038 0
4785 -4783 -4696 0
4785 -4783 -4038 0
4785 -4696 -4038 0
-4788 4785 4698 4039 0
-4788 4785 -4698 -4039 0
-4788 -4785 4698 -4039 0
4788 4785 4698 -4039 0
-4788 -4785 -4698 4039 0
4788 4785 -4698 4039 0
4788 -4785 4698 4039 0
4788 -4785 -4698 -4039 0
-4787 4785 4698 0
-4787 4785 4039 0
-4787 4698 4039 0
4787 -4785 -4698 0
4787 -4785 -4039 0
4787 -4698 -4039 0
-4790 4787 4700 4040 0
-4790 4787 -4700 -4040 0
-4790 -4787 4700 -4040 0
4790 4787 4700 -4040 0
-4790 -4787 -4700 4040 0
4790 4787 -4700 4040 0
4790 -4787 4700 4040 0
4790 -4787 -4700 -4040 0
-4789 4787 4700 0
-4789 4787 4040 0
-4789 4700 4040 0
4789 -4787 -4700 0
4789 -4787 -4040 0
4789 -4700 -4040 0
-4792 4789 4702 4041 0
-4792 4789 -4702 -4041 0
-4792 -4789 4702 -4041 0
4792 4789 4702 -4041 0
-4792 -4789 -4702 4041 0
4792 4789 -4702 4041 0
4792 -4789 4702 4041 0
4792 -4789 -4702 -4041 0
-4791 4789 4702 0
-4791 4789 4041 0
-4791 4702 4041 0
4791 -4789 -4702 0
4791 -4789 -4041 0
4791 -4702 -4041 0
-4794 4791 4704 4042 0
-4794 4791 -4704 -4042 0
-4794 -4791 4704 -4042 0
4794 4791 4704 -4042 0
-4794 -4791 -4704 4042 0
4794 4791 -4704 4042 0
4794 -4791 4704 4042 0
4794 -4791 -4704 -4042 0
-4793 4791 4704 0
-4793 4791 4042 0
-4793 4704 4042 0
4793 -4791 -4704 0
4793 -4791 -4042 0
4793 -4704 -4042 0
-4796 4793 4706 4043 0
-4796 4793 -4706 -4043 0
-4796 -4793 4706 -4043 0
4796 4793 4706 -4043 0
-4796 -4793 -4706 4043 0
4796 4793 -4706 4043 0
4796 -4793 4706 4043 0
4796 -4793 -4706 -4043 0
-4795 4793 4706 0
-4795 4793 4043 0
-4795 4706 4043 0
4795 -4793 -4706 0
4795 -4793 -4043 0
4795 -4706 -4043 0
-4798 4795 4708 4044 0
-4798 4795 -4708 -4044 0
-4798 -4795 4708 -4044 0
4798 4795 4708 -4044 0
-4798 -4795 -4708 4044 0
4798 4795 -4708 4044 0
4798 -4795 4708 4044 0
4798 -4795 -4708 -4044 0
-4797 4795 4708 0
-4797 4795 4044 0
-4797 4708 4044 0
4797 -4795 -4708 0
4797 -4795 -4044 0
4797 -4708 -4044 0
-4800 4797 4710 4045 0
-4800 4797 -4710 -4045 0
-4800 -4797 4710 -4045 0
4800 4797 4710 -4045 0
-4800 -4797 -4710 4045 0
4800 4797 -4710 4045 0
4800 -4797 4710 4045 0
4800 -4797 -4710 -4045 0
-4799 4797 4710 0
-4799 4797 4045 0
-4799 4710 4045 0
4799 -4797 -4710 0
4799 -4797 -4045 0
4799 -4710 -4045 0
-4802 4799 4712 4046 0
-4802 4799 -4712 -4046 0
-4802 -4799 4712 -4046 0
4802 4799 4712 -4046 0
-4802 -4799 -4712 4046 0
4802 4799 -4712 4046 0
4802 -4799 4712 4046 0
4802 -4799 -4712 -4046 0
-4801 4799 4712 0
-4801 4799 4046 0
-4801 4712 4046 0
4801 -4799 -4712 0
4801 -4799 -4046 0
4801 -4712 -4046 0
-4804 4801 4714 4047 0
-4804 4801 -4714 -4047 0
-4804 -4801 4714 -4047 0
4804 4801 4714 -4047 0
-4804 -4801 -4714 4047 0
4804 4801 -4714 4047 0
4804 -4801 4714 4047 0
4804 -4801 -4714 -4047 0
-4803 4801 4714 0
-4803 4801 4047 0
-4803 4714 4047 0
4803 -4801 -4714 0
4803 -4801 -4047 0
4803 -4714 -4047 0
-4806 4803 4716 4048 0
-4806 4803 -4716 -4048 0
-4806 -4803 4716 -4048 0
4806 4803 4716 -4048 0
-4806 -4803 -4716 4048 0
4806 4803 -4716 4048 0
4806 -4803 4716 4048 0
4806 -4803 -4716 -4048 0
-4805 4803 4716 0
-4805 4803 4048 0
-4805 4716 4048 0
4805 -4803 -4716 0
4805 -4803 -4048 0
4805 -4716 -4048 0
-4808 4805 4718 4049 0
-4808 4805 -4718 -4049 0
-4808 -4805 4718 -4049 0
4808 4805 4718 -4049 0
-4808 -4805 -4718 4049 0
4808 4805 -4718 4049 0
4808 -4805 4718 4049 0
4808 -4805 -4718 -4049 0
-4807 4805 4718 0
-4807 4805 4049 0
-4807 4718 4049 0
4807 -4805 -4718 0
4807 -4805 -4049 0
4807 -4718 -4049 0
-4810 4807 4720 4050 0
-4810 4807 -4720 -4050 0
-4810 -4807 4720 -4050 0
4810 4807 4720 -4050 0
-4810 -4807 -4720 4050 0
4810 4807 -4720 4050 0
4810 -4807 4720 4050 0
4810 -4807 -4720 -4050 0
-4809 4807 4720 0
-4809 4807 4050 0
-4809 4720 4050 0
4809 -4807 -4720 0
4809 -4807 -4050 0
4809 -4720 -4050 0
-4812 4809 4722 4051 0
-4812 4809 -4722 -4051 0
-4812 -4809 4722 -4051 0
4812 4809 4722 -4051 0
-4812 -4809 -4722 4051 0
4812 4809 -4722 4051 0
4812 -4809 4722 4051 0
4812 -4809 -4722 -4051 0
-4811 4809 4722 0
-4811 4809 4051 0
-4811 4722 4051 0
4811 -4809 -4722 0
4811 -4809 -4051 0
4811 -4722 -4051 0
-4814 4811 4724 4052 0
-4814 4811 -4724 -4052 0
-4814 -4811 4724 -4052 0
4814 4811 4724 -4052 0
-4814 -4811 -4724 4052 0
4814 4811 -4724 4052 0
4814 -4811 4724 4052 0
4814 -4811 -4724 -4052 0
-4813 4811 4724 0
-4813 4811 4052 0
-4813 4724 4052 0
4813 -4811 -4724 0
4813 -4811 -4052 0
4813 -4724 -4052 0
-4816 4813 4726 4053 0
-4816 4813 -4726 -4053 0
-4816 -4813 4726 -4053 0
4816 4813 4726 -4053 0
-4816 -4813 -4726 4053 0
4816 4813 -4726 4053 0
4816 -4813 4726 4053 0
4816 -4813 -4726 -4053 0
-4815 4813 4726 0
-4815 4813 4053 0
-4815 4726 4053 0
4815 -4813 -4726 0
4815 -4813 -4053 0
4815 -4726 -4053 0
-4818 4815 4728 4054 0
-4818 4815 -4728 -4054 0
-4818 -4815 4728 -4054 0
4818 4815 4728 -4054 0
-4818 -4815 -4728 4054 0
4818 4815 -4728 4054 0
4818 -4815 4728 4054 0
4818 -4815 -4728 -4054 0
-4817 4815 4728 0
-4817 4815 4054 0
-4817 4728 4054 0
4817 -4815 -4728 0
4817 -4815 -4054 0
4817 -4728 -4054 0
-4820 4817 4730 4055 0
-4820 4817 -4730 -4055 0
-4820 -4817 4730 -4055 0
4820 4817 4730 -4055 0
-4820 -4817 -4730 4055 0
4820 4817 -4730 4055 0
4820 -4817 4730 4055 0
4820 -4817 -4730 -4055 0
-4819 4817 4730 0
-4819 4817 4055 0
-4819 4730 4055 0
4819 -4817 -4730 0
4819 -4817 -4055 0
4819 -4730 -4055 0
-4822 4819 4732 4056 0
-4822 4819 -4732 -4056 0
-4822 -4819 4732 -4056 0
4822 4819 4732 -4056 0
-4822 -4819 -4732 4056 0
4822 4819 -4732 4056 0
4822 -4819 4732 4056 0
4822 -4819 -4732 -4056 0
-4821 4819 4732 0
-4821 4819 4056 0
-4821 4732 4056 0
4821 -4819 -4732 0
4821 -4819 -4056 0
4821 -4732 -4056 0
-4824 4821 4734 4057 0
-4824 4821 -4734 -4057 0
-4824 -4821 4734 -4057 0
4824 4821 4734 -4057 0
-4824 -4821 -4734 4057 0
4824 4821 -4734 4057 0
4824 -4821 4734 4057 0
4824 -4821 -4734 -4057 0
-4823 4821 4734 0
-4823 4821 4057 0
-4823 4734 4057 0
4823 -4821 -4734 0
4823 -4821 -4057 0
4823 -4734 -4057 0
-4826 4823 4736 4058 0
-4826 4823 -4736 -4058 0
-4826 -4823 4736 -4058 0
4826 4823 4736 -4058 0
-4826 -4823 -4736 4058 0
4826 4823 -4736 4058 0
4826 -4823 4736 4058 0
4826 -4823 -4736 -4058 0
-4825 4823 4736 0
-4825 4823 4058 0
-4825 4736 4058 0
4825 -4823 -4736 0
4825 -4823 -4058 0
4825 -4736 -4058 0
-4828 4825 4738 4059 0
-4828 4825 -4738 -4059 0
-4828 -4825 4738 -4059 0
4828 4825 4738 -4059 0
-4828 -4825 -4738 4059 0
4828 4825 -4738 4059 0
4828 -4825 4738 4059 0
4828 -4825 -4738 -4059 0
-4827 4825 4738 0
-4827 4825 4059 0
-4827 4738 4059 0
4827 -4825 -4738 0
4827 -4825 -4059 0
4827 -4738 -4059 0
-4830 4827 4740 4060 0
-4830 4827 -4740 -4060 0
-4830 -4827 4740 -4060 0
4830 4827 4740 -4060 0
-4830 -4827 -4740 4060 0
4830 4827 -4740 4060 0
4830 -4827 4740 4060 0
4830 -4827 -4740 -4060 0
-4829 4827 4740 0
-4829 4827 4060 0
-4829 4740 4060 0
4829 -4827 -4740 0
4829 -4827 -4060 0
4829 -4740 -4060 0
-4832 4829 4742 4061 0
-4832 4829 -4742 -4061 0
-4832 -4829 4742 -4061 0
4832 4829 4742 -4061 0
-4832 -4829 -4742 4061 0
4832 4829 -4742 4061 0
4832 -4829 4742 4061 0
4832 -4829 -4742 -4061 0
-4831 4829 4742 0
-4831 4829 4061 0
-4831 4742 4061 0
4831 -4829 -4742 0
4831 -4829 -4061 0
4831 -4742 -4061 0
-4834 4831 4744 4062 0
-4834 4831 -4744 -4062 0
-4834 -4831 4744 -4062 0
4834 4831 4744 -4062 0
-4834 -4831 -4744 4062 0
4834 4831 -4744 4062 0
4834 -4831 4744 4062 0
4834 -4831 -4744 -4062 0
-4833 4831 4744 0
-4833 4831 4062 0
-4833 4744 4062 0
4833 -4831 -4744 0
4833 -4831 -4062 0
4833 -4744 -4062 0
-4836 4833 4746 4063 0
-4836 4833 -4746 -4063 0
-4836 -4833 4746 -4063 0
4836 4833 4746 -4063 0
-4836 -4833 -4746 4063 0
4836 4833 -4746 4063 0
4836 -4833 4746 4063 0
4836 -4833 -4746 -4063 0
-4835 4833 4746 0
-4835 4833 4063 0
-4835 4746 4063 0
4835 -4833 -4746 0
4835 -4833 -4063 0
4835 -4746 -4063 0
-4838 4835 4745 4064 0
-4838 4835 -4745 -4064 0
-4838 -4835 4745 -4064 0
4838 4835 4745 -4064 0
-4838 -4835 -4745 4064 0
4838 4835 -4745 4064 0
4838 -4835 4745 4064 0
4838 -4835 -4745 -4064 0
-4837 4835 4745 0
-4837 4835 4064 0
-4837 4745 4064 0
4837 -4835 -4745 0
4837 -4835 -4064 0
4837 -4745 -4064 0
-4748 4840 0
4748 -4840 0
-4839 0
4750 4839 -4842 0
-4750 -4839 -4842 0
-4750 4839 4842 0
4750 -4839 4842 0
-4841 4839 0
-4841 4750 0
4841 -4839 -4750 0
4752 4841 -4844 0
-4752 -4841 -4844 0
-4752 4841 4844 0
4752 -4841 4844 0
-4843 4841 0
-4843 4752 0
4843 -4841 -4752 0
4754 4843 -4846 0
-4754 -4843 -4846 0
-4754 4843 4846 0
4754 -4843 4846 0
-4845 4843 0
-4845 4754 0
4845 -4843 -4754 0
4756 4845 -4848 0
-4756 -4845 -4848 0
-4756 4845 4848 0
4756 -4845 4848 0
-4847 4845 0
-4847 4756 0
4847 -4845 -4756 0
4758 4847 -4850 0
-4758 -4847 -4850 0
-4758 4847 4850 0
4758 -4847 4850 0
-4849 4847 0
-4849 4758 0
4849 -4847 -4758 0
4760 4849 -4852 0
-4760 -4849 -4852 0
-4760 4849 4852 0
4760 -4849 4852 0
-4851 4849 0
-4851 4760 0
4851 -4849 -4760 0
4762 4851 -4854 0
-4762 -4851 -4854 0
-4762 4851 4854 0
4762 -4851 4854 0
-4853 4851 0
-4853 4762 0
4853 -4851 -4762 0
4764 4853 -4856 0
-4764 -4853 -4856 0
-4764 4853 4856 0
4764 -4853 4856 0
-4855 4853 0
-4855 4764 0
4855 -4853 -4764 0
4766 4855 -4858 0
-4766 -4855 -4858 0
-4766 4855 4858 0
4766 -4855 4858 0
-4857 4855 0
-4857 4766 0
4857 -4855 -4766 0
4768 4857 -4860 0
-4768 -4857 -4860 0
-4768 4857 4860 0
4768 -4857 4860 0
-4859 4857 0
-4859 4768 0
4859 -4857 -4768 0
4770 4859 -4862 0
-4770 -4859 -4862 0
-4770 4859 4862 0
4770 -4859 4862 0
-4861 4859 0
-4861 4770 0
4861 -4859 -4770 0
4772 4861 -4864 0
-4772 -4861 -4864 0
-4772 4861 4864 0
4772 -4861 4864 0
-4863 4861 0
-4863 4772 0
4863 -4861 -4772 0
4774 4863 -4866 0
-4774 -4863 -4866 0
-4774 4863 4866 0
4774 -4863 4866 0
-4865 4863 0
-4865 4774 0
4865 -4863 -4774 0
4776 4865 -4868 0
-4776 -4865 -4868 0
-4776 4865 4868 0
4776 -4865 4868 0
-4867 4865 0
-4867 4776 0
4867 -4865 -4776 0
-4870 4867 4778 4033 0
-4870 4867 -4778 -4033 0
-4870 -4867 4778 -4033 0
4870 4867 4778 -4033 0
-4870 -4867 -4778 4033 0
4870 4867 -4778 4033 0
4870 -4867 4778 4033 0
4870 -4867 -4778 -4033 0
-4869 4867 4778 0
-4869 4867 4033 0
-4869 4778 4033 0
4869 -4867 -4778 0
4869 -4867 -4033 0
4869 -4778 -4033 0
-4872 4869 4780 4034 0
-4872 4869 -4780 -4034 0
-4872 -4869 4780 -4034 0
4872 4869 4780 -4034 0
-4872 -4869 -4780 4034 0
4872 4869 -4780 4034 0
4872 -4869 4780 4034 0
4872 -4869 -4780 -4034 0
-4871 4869 4780 0
-4871 4869 4034 0
-4871 4780 4034 0
4871 -4869 -4780 0
4871 -4869 -4034 0
4871 -4780 -4034 0
-4874 4871 4782 4035 0
-4874 4871 -4782 -4035 0
-4874 -4871 4782 -4035 0
4874 4871 4782 -4035 0
-4874 -4871 -4782 4035 0
4874 4871 -4782 4035 0
4874 -4871 4782 4035 0
4874 -4871 -4782 -4035 0
-4873 4871 4782 0
-4873 4871 4035 0
-4873 4782 4035 0
4873 -4871 -4782 0
4873 -4871 -4035 0
4873 -4782 -4035 0
-4876 4873 4784 4036 0
-4876 4873 -4784 -4036 0
-4876 -4873 4784 -4036 0
4876 4873 4784 -4036 0
-4876 -4873 -4784 4036 0
4876 4873 -4784 4036 0
4876 -4873 4784 4036 0
4876 -4873 -4784 -4036 0
-4875 4873 4784 0
-4875 4873 4036 0
-4875 4784 4036 0
4875 -4873 -4784 0
4875 -4873 -4036 0
4875 -4784 -4036 0
-4878 4875 4786 4037 0
-4878 4875 -4786 -4037 0
-4878 -4875 4786 -4037 0
4878 4875 4786 -4037 0
-4878 -4875 -4786 4037 0
4878 4875 -4786 4037 0
4878 -4875 4786 4037 0
4878 -4875 -4786 -4037 0
-4877 4875 4786 0
-4877 4875 4037 0
-4877 4786 4037 0
4877 -4875 -4786 0
4877 -4875 -4037 0
4877 -4786 -4037 0
-4880 4877 4788 4038 0
-4880 4877 -4788 -4038 0
-4880 -4877 4788 -4038 0
4880 4877 4788 -4038 0
-4880 -4877 -4788 4038 0
4880 4877 -4788 4038 0
4880 -4877 4788 4038 0
4880 -4877 -4788 -4038 0
-4879 4877 4788 0
-4879 4877 4038 0
-4879 4788 4038 0
4879 -4877 -4788 0
4879 -4877 -4038 0
4879 -4788 -4038 0
-4882 4879 4790 4039 0
-4882 4879 -4790 -4039 0
-4882 -4879 4790 -4039 0
4882 4879 4790 -4039 0
-4882 -4879 -4790 4039 0
4882 4879 -4790 4039 0
4882 -4879 4790 4039 0
4882 -4879 -4790 -4039 0
-4881 4879 4790 0
-4881 4879 4039 0
-4881 4790 4039 0
4881 -4879 -4790 0
4881 -4879 -4039 0
4881 -4790 -4039 0
-4884 4881 4792 4040 0
-4884 4881 -4792 -4040 0
-4884 -4881 4792 -4040 0
4884 4881 4792 -4040 0
-4884 -4881 -4792 4040 0
4884 4881 -4792 4040 0
4884 -4881 4792 4040 0
4884 -4881 -4792 -4040 0
-4883 4881 4792 0
-4883 4881 4040 0
-4883 4792 4040 0
4883 -4881 -4792 0
4883 -4881 -4040 0
4883 -4792 -4040 0
-4886 4883 4794 4041 0
-4886 4883 -4794 -4041 0
-4886 -4883 4794 -4041 0
4886 4883 4794 -4041 0
-4886 -4883 -4794 4041 0
4886 4883 -4794 4041 0
4886 -4883 4794 4041 0
4886 -4883 -4794 -4041 0
-4885 4883 4794 0
-4885 4883 4041 0
-4885 4794 4041 0
4885 -4883 -4794 0
4885 -4883 -4041 0
4885 -4794 -4041 0
-4888 4885 4796 4042 0
-4888 4885 -4796 -4042 0
-4888 -4885 4796 -4042 0
4888 4885 4796 -4042 0
-4888 -4885 -4796 4042 0
4888 4885 -4796 4042 0
4888 -4885 4796 4042 0
4888 -4885 -4796 -4042 0
-4887 4885 4796 0
-4887 4885 4042 0
-4887 4796 4042 0
4887 -4885 -4796 0
4887 -4885 -4042 0
4887 -4796 -4042 0
-4890 4887 4798 4043 0
-4890 4887 -4798 -4043 0
-4890 -4887 4798 -4043 0
4890 4887 4798 -4043 0
-4890 -4887 -4798 4043 0
4890 4887 -4798 4043 0
4890 -4887 4798 4043 0
4890 -4887 -4798 -4043 0
-4889 4887 4798 0
-4889 4887 4043 0
-4889 4798 4043 0
4889 -4887 -4798 0
4889 -4887 -4043 0
4889 -4798 -4043 0
-4892 4889 4800 4044 0
-4892 4889 -4800 -4044 0
-4892 -4889 4800 -4044 0
4892 4889 4800 -4044 0
-4892 -4889 -4800 4044 0
4892 4889 -4800 4044 0
4892 -4889 4800 4044 0
4892 -4889 -4800 -4044 0
-4891 4889 4800 0
-4891 4889 4044 0
-4891 4800 4044 0
4891 -4889 -4800 0
4891 -4889 -4044 0
4891 -4800 -4044 0
-4894 4891 4802 4045 0
-4894 4891 -4802 -4045 0
-4894 -4891 4802 -4045 0
4894 4891 4802 -4045 0
-4894 -4891 -4802 4045 0
4894 4891 -4802 4045 0
4894 -4891 4802 4045 0
4894 -4891 -4802 -4045 0
-4893 4891 4802 0
-4893 4891 4045 0
-4893 4802 4045 0
4893 -4891 -4802 0
4893 -4891 -4045 0
4893 -4802 -4045 0
-4896 4893 4804 4046 0
-4896 4893 -4804 -4046 0
-4896 -4893 4804 -4046 0
4896 4893 4804 -4046 0
-4896 -4893 -4804 4046 0
4896 4893 -4804 4046 0
4896 -4893 4804 4046 0
4896 -4893 -4804 -4046 0
-4895 4893 4804 0
-4895 4893 4046 0
-4895 4804 4046 0
4895 -4893 -4804 0
4895 -4893 -4046 0
4895 -4804 -4046 0
-4898 4895 4806 4047 0
-4898 4895 -4806 -4047 0
-4898 -4895 4806 -4047 0
4898 4895 4806 -4047 0
-4898 -4895 -4806 4047 0
4898 4895 -4806 4047 0
4898 -4895 4806 4047 0
4898 -4895 -4806 -4047 0
-4897 4895 4806 0
-4897 4895 4047 0
-4897 4806 4047 0
4897 -4895 -4806 0
4897 -4895 -4047 0
4897 -4806 -4047 0
-4900 4897 4808 4048 0
-4900 4897 -4808 -4048 0
-4900 -4897 4808 -4048 0
4900 4897 4808 -4048 0
-4900 -4897 -4808 4048 0
4900 4897 -4808 4048 0
4900 -4897 4808 4048 0
4900 -4897 -4808 -4048 0
-4899 4897 4808 0
-4899 4897 4048 0
-4899 4808 4048 0
4899 -4897 -4808 0
4899 -4897 -4048 0
4899 -4808 -4048 0
-4902 4899 4810 4049 0
-4902 4899 -4810 -4049 0
-4902 -4899 4810 -4049 0
4902 4899 4810 -4049 0
-4902 -4899 -4810 4049 0
4902 4899 -4810 4049 0
4902 -4899 4810 4049 0
4902 -4899 -4810 -4049 0
-4901 4899 4810 0
-4901 4899 4049 0
-4901 4810 4049 0
4901 -4899 -4810 0
4901 -4899 -4049 0
4901 -4810 -4049 0
-4904 4901 4812 4050 0
-4904 4901 -4812 -4050 0
-4904 -4901 4812 -4050 0
4904 4901 4812 -4050 0
-4904 -4901 -4812 4050 0
4904 4901 -4812 4050 0
4904 -4901 4812 4050 0
4904 -4901 -4812 -4050 0
-4903 4901 4812 0
-4903 4901 4050 0
-4903 4812 4050 0
4903 -4901 -4812 0
4903 -4901 -4050 0
4903 -4812 -4050 0
-4906 4903 4814 4051 0
-4906 4903 -4814 -4051 0
-4906 -4903 4814 -4051 0
4906 4903 4814 -4051 0
-4906 -4903 -4814 4051 0
4906 4903 -4814 4051 0
4906 -4903 4814 4051 0
4906 -4903 -4814 -4051 0
-4905 4903 4814 0
-4905 4903 4051 0
-4905 4814 4051 0
4905 -4903 -4814 0
4905 -4903 -4051 0
4905 -4814 -4051 0
-4908 4905 4816 4052 0
-4908 4905 -4816 -4052 0
-4908 -4905 4816 -4052 0
4908 4905 4816 -4052 0
-4908 -4905 -4816 4052 0
4908 4905 -4816 4052 0
4908 -4905 4816 4052 0
4908 -4905 -4816 -4052 0
-4907 4905 4816 0
-4907 4905 4052 0
-4907 4816 4052 0
4907 -4905 -4816 0
4907 -4905 -4052 0
4907 -4816 -4052 0
-4910 4907 4818 4053 0
-4910 4907 -4818 -4053 0
-4910 -4907 4818 -4053 0
4910 4907 4818 -4053 0
-4910 -4907 -4818 4053 0
4910 4907 -4818 4053 0
4910 -4907 4818 4053 0
4910 -4907 -4818 -4053 0
-4909 4907 4818 0
-4909 4907 4053 0
-4909 4818 4053 0
4909 -4907 -4818 0
4909 -4907 -4053 0
4909 -4818 -4053 0
-4912 4909 4820 4054 0
-4912 4909 -4820 -4054 0
-4912 -4909 4820 -4054 0
4912 4909 4820 -4054 0
-4912 -4909 -4820 4054 0
4912 4909 -4820 4054 0
4912 -4909 4820 4054 0
4912 -4909 -4820 -4054 0
-4911 4909 4820 0
-4911 4909 4054 0
-4911 4820 4054 0
4911 -4909 -4820 0
4911 -4909 -4054 0
4911 -4820 -4054 0
-4914 4911 4822 4055 0
-4914 4911 -4822 -4055 0
-4914 -4911 4822 -4055 0
4914 4911 4822 -4055 0
-4914 -4911 -4822 4055 0
4914 4911 -4822 4055 0
4914 -4911 4822 4055 0
4914 -4911 -4822 -4055 0
-4913 4911 4822 0
-4913 4911 4055 0
-4913 4822 4055 0
4913 -4911 -4822 0
4913 -4911 -4055 0
4913 -4822 -4055 0
-4916 4913 4824 4056 0
-4916 4913 -4824 -4056 0
-4916 -4913 4824 -4056 0
4916 4913 4824 -4056 0
-4916 -4913 -4824 4056 0
4916 4913 -4824 4056 0
4916 -4913 4824 4056 0
4916 -4913 -4824 -4056 0
-4915 4913 4824 0
-4915 4913 4056 0
-4915 4824 4056 0
4915 -4913 -4824 0
4915 -4913 -4056 0
4915 -4824 -4056 0
-4918 4915 4826 4057 0
-4918 4915 -4826 -4057 0
-4918 -4915 4826 -4057 0
4918 4915 4826 -4057 0
-4918 -4915 -4826 4057 0
4918 4915 -4826 4057 0
4918 -4915 4826 4057 0
4918 -4915 -4826 -4057 0
-4917 4915 4826 0
-4917 4915 4057 0
-4917 4826 4057 0
4917 -4915 -4826 0
4917 -4915 -4057 0
4917 -4826 -4057 0
-4920 4917 4828 4058 0
-4920 4917 -4828 -4058 0
-4920 -4917 4828 -4058 0
4920 4917 4828 -4058 0
-4920 -4917 -4828 4058 0
4920 4917 -4828 4058 0
4920 -4917 4828 4058 0
4920 -4917 -4828 -4058 0
-4919 4917 4828 0
-4919 4917 4058 0
-4919 4828 4058 0
4919 -4917 -4828 0
4919 -4917 -4058 0
4919 -4828 -4058 0
-4922 4919 4830 4059 0
-4922 4919 -4830 -4059 0
-4922 -4919 4830 -4059 0
4922 4919 4830 -4059 0
-4922 -4919 -4830 4059 0
4922 4919 -4830 4059 0
4922 -4919 4830 4059 0
4922 -4919 -4830 -4059 0
-4921 4919 4830 0
-4921 4919 4059 0
-4921 4830 4059 0
4921 -4919 -4830 0
4921 -4919 -4059 0
4921 -4830 -4059 0
-4924 4921 4832 4060 0
-4924 4921 -4832 -4060 0
-4924 -4921 4832 -4060 0
4924 4921 4832 -4060 0
-4924 -4921 -4832 4060 0
4924 4921 -4832 4060 0
4924 -4921 4832 4060 0
4924 -4921 -4832 -4060 0
-4923 4921 4832 0
-4923 4921 4060 0
-4923 4832 4060 0
4923 -4921 -4832 0
4923 -4921 -4060 0
4923 -4832 -4060 0
-4926 4923 4834 4061 0
-4926 4923 -4834 -4061 0
-4926 -4923 4834 -4061 0
4926 4923 4834 -4061 0
-4926 -4923 -4834 4061 0
4926 4923 -4834 4061 0
4926 -4923 4834 4061 0
4926 -4923 -4834 -4061 0
-4925 4923 4834 0
-4925 4923 4061 0
-4925 4834 4061 0
4925 -4923 -4834 0
4925 -4923 -4061 0
4925 -4834 -4061 0
-4928 4925 4836 4062 0
-4928 4925 -4836 -4062 0
-4928 -4925 4836 -4062 0
4928 4925 4836 -4062 0
-4928 -4925 -4836 4062 0
4928 4925 -4836 4062 0
4928 -4925 4836 4062 0
4928 -4925 -4836 -4062 0
-4927 4925 4836 0
-4927 4925 4062 0
-4927 4836 4062 0
4927 -4925 -4836 0
4927 -4925 -4062 0
4927 -4836 -4062 0
-4930 4927 4838 4063 0
-4930 4927 -4838 -4063 0
-4930 -4927 4838 -4063 0
4930 4927 4838 -4063 0
-4930 -4927 -4838 4063 0
4930 4927 -4838 4063 0
4930 -4927 4838 4063 0
4930 -4927 -4838 -4063 0
-4929 4927 4838 0
-4929 4927 4063 0
-4929 4838 4063 0
4929 -4927 -4838 0
4929 -4927 -4063 0
4929 -4838 -4063 0
-4932 4929 4837 4064 0
-4932 4929 -4837 -4064 0
-4932 -4929 4837 -4064 0
4932 4929 4837 -4064 0
-4932 -4929 -4837 4064 0
4932 4929 -4837 4064 0
4932 -4929 4837 4064 0
4932 -4929 -4837 -4064 0
-4931 4929 4837 0
-4931 4929 4064 0
-4931 4837 4064 0
4931 -4929 -4837 0
4931 -4929 -4064 0
4931 -4837 -4064 0
-4840 4934 0
4840 -4934 0
-4933 0
4842 4933 -4936 0
-4842 -4933 -4936 0
-4842 4933 4936 0
4842 -4933 4936 0
-4935 4933 0
-4935 4842 0
4935 -4933 -4842 0
4844 4935 -4938 0
-4844 -4935 -4938 0
-4844 4935 4938 0
4844 -4935 4938 0
-4937 4935 0
-4937 4844 0
4937 -4935 -4844 0
4846 4937 -4940 0
-4846 -4937 -4940 0
-4846 4937 4940 0
4846 -4937 4940 0
-4939 4937 0
-4939 4846 0
4939 -4937 -4846 0
4848 4939 -4942 0
-4848 -4939 -4942 0
-4848 4939 4942 0
4848 -4939 4942 0
-4941 4939 0
-4941 4848 0
4941 -4939 -4848 0
4850 4941 -4944 0
-4850 -4941 -4944 0
-4850 4941 4944 0
4850 -4941 4944 0
-4943 4941 0
-4943 4850 0
4943 -4941 -4850 0
4852 4943 -4946 0
-4852 -4943 -4946 0
-4852 4943 4946 0
4852 -4943 4946 0
-4945 4943 0
-4945 4852 0
4945 -4943 -4852 0
4854 4945 -4948 0
-4854 -4945 -4948 0
-4854 4945 4948 0
4854 -4945 4948 0
-4947 4945 0
-4947 4854 0
4947 -4945 -4854 0
4856 4947 -4950 0
-4856 -4947 -4950 0
-4856 4947 4950 0
4856 -4947 4950 0
-4949 4947 0
-4949 4856 0
4949 -4947 -4856 0
4858 4949 -4952 0
-4858 -4949 -4952 0
-4858 4949 4952 0
4858 -4949 4952 0
-4951 4949 0
-4951 4858 0
4951 -4949 -4858 0
4860 4951 -4954 0
-4860 -4951 -4954 0
-4860 4951 4954 0
4860 -4951 4954 0
-4953 4951 0
-4953 4860 0
4953 -4951 -4860 0
4862 4953 -4956 0
-4862 -4953 -4956 0
-4862 4953 4956 0
4862 -4953 4956 0
-4955 4953 0
-4955 4862 0
4955 -4953 -4862 0
4864 4955 -4958 0
-4864 -4955 -4958 0
-4864 4955 4958 0
4864 -4955 4958 0
-4957 4955 0
-4957 4864 0
4957 -4955 -4864 0
4866 4957 -4960 0
-4866 -4957 -4960 0
-4866 4957 4960 0
4866 -4957 4960 0
-4959 4957 0
-4959 4866 0
4959 -4957 -4866 0
4868 4959 -4962 0
-4868 -4959 -4962 0
-4868 4959 4962 0
4868 -4959 4962 0
-4961 4959 0
-4961 4868 0
4961 -4959 -4868 0
4870 4961 -4964 0
-4870 -4961 -4964 0
-4870 4961 4964 0
4870 -4961 4964 0
-4963 4961 0
-4963 4870 0
4963 -4961 -4870 0
4872 4963 -4966 0
-4872 -4963 -4966 0
-4872 4963 4966 0
4872 -4963 4966 0
-4965 4963 0
-4965 4872 0
4965 -4963 -4872 0
4874 4965 -4968 0
-4874 -4965 -4968 0
-4874 4965 4968 0
4874 -4965 4968 0
-4967 4965 0
-4967 4874 0
4967 -4965 -4874 0
-4970 4967 4876 4033 0
-4970 4967 -4876 -4033 0
-4970 -4967 4876 -4033 0
4970 4967 4876 -4033 0
-4970 -4967 -4876 4033 0
4970 4967 -4876 4033 0
4970 -4967 4876 4033 0
4970 -4967 -4876 -4033 0
-4969 4967 4876 0
-4969 4967 4033 0
-4969 4876 4033 0
4969 -4967 -4876 0
4969 -4967 -4033 0
4969 -4876 -4033 0
-4972 4969 4878 4034 0
-4972 4969 -4878 -4034 0
-4972 -4969 4878 -4034 0
4972 4969 4878 -4034 0
-4972 -4969 -4878 4034 0
4972 4969 -4878 4034 0
4972 -4969 4878 4034 0
4972 -4969 -4878 -4034 0
-4971 4969 4878 0
-4971 4969 4034 0
-4971 4878 4034 0
4971 -4969 -4878 0
4971 -4969 -4034 0
4971 -4878 -4034 0
-4974 4971 4880 4035 0
-4974 4971 -4880 -4035 0
-4974 -4971 4880 -4035 0
4974 4971 4880 -4035 0
-4974 -4971 -4880 4035 0
4974 4971 -4880 4035 0
4974 -4971 4880 4035 0
4974 -4971 -4880 -4035 0
-4973 4971 4880 0
-4973 4971 4035 0
-4973 4880 4035 0
4973 -4971 -4880 0
4973 -4971 -4035 0
4973 -4880 -4035 0
-4976 4973 4882 4036 0
-4976 4973 -4882 -4036 0
-4976 -4973 4882 -4036 0
4976 4973 4882 -4036 0
-4976 -4973 -4882 4036 0
4976 4973 -4882 4036 0
4976 -4973 4882 4036 0
4976 -4973 -4882 -4036 0
-4975 4973 4882 0
-4975 4973 4036 0
-4975 4882 4036 0
4975 -4973 -4882 0
4975 -4973 -4036 0
4975 -4882 -4036 0
-4978 4975 4884 4037 0
-4978 4975 -4884 -4037 0
-4978 -4975 4884 -4037 0
4978 4975 4884 -4037 0
-4978 -4975 -4884 4037 0
4978 4975 -4884 4037 0
4978 -4975 4884 4037 0
4978 -4975 -4884 -4037 0
-4977 4975 4884 0
-4977 4975 4037 0
-4977 4884 4037 0
4977 -4975 -4884 0
4977 -4975 -4037 0
4977 -4884 -4037 0
-4980 4977 4886 4038 0
-4980 4977 -4886 -4038 0
-4980 -4977 4886 -4038 0
4980 4977 4886 -4038 0
-4980 -4977 -4886 4038 0
4980 4977 -4886 4038 0
4980 -4977 4886 4038 0
4980 -4977 -4886 -4038 0
-4979 4977 4886 0
-4979 4977 4038 0
-4979 4886 4038 0
4979 -4977 -4886 0
4979 -4977 -4038 0
4979 -4886 -4038 0
-4982 4979 4888 4039 0
-4982 4979 -4888 -4039 0
-4982 -4979 4888 -4039 0
4982 4979 4888 -4039 0
-4982 -4979 -4888 4039 0
4982 4979 -4888 4039 0
4982 -4979 4888 4039 0
4982 -4979 -4888 -4039 0
-4981 4979 4888 0
-4981 4979 4039 0
-4981 4888 4039 0
4981 -4979 -4888 0
4981 -4979 -4039 0
4981 -4888 -4039 0
-4984 4981 4890 4040 0
-4984 4981 -4890 -4040 0
-4984 -4981 4890 -4040 0
4984 4981 4890 -4040 0
-4984 -4981 -4890 4040 0
4984 4981 -4890 4040 0
4984 -4981 4890 4040 0
4984 -4981 -4890 -4040 0
-4983 4981 4890 0
-4983 4981 4040 0
-4983 4890 4040 0
4983 -4981 -4890 0
4983 -4981 -4040 0
4983 -4890 -4040 0
-4986 4983 4892 4041 0
-4986 4983 -4892 -4041 0
-4986 -4983 4892 -4041 0
4986 4983 4892 -4041 0
-4986 -4983 -4892 4041 0
4986 4983 -4892 4041 0
4986 -4983 4892 4041 0
4986 -4983 -4892 -4041 0
-4985 4983 4892 0
-4985 4983 4041 0
-4985 4892 4041 0
4985 -4983 -4892 0
4985 -4983 -4041 0
4985 -4892 -4041 0
-4988 4985 4894 4042 0
-4988 4985 -4894 -4042 0
-4988 -4985 4894 -4042 0
4988 4985 4894 -4042 0
-4988 -4985 -4894 4042 0
4988 4985 -4894 4042 0
4988 -4985 4894 4042 0
4988 -4985 -4894 -4042 0
-4987 4985 4894 0
-4987 4985 4042 0
-4987 4894 4042 0
4987 -4985 -4894 0
4987 -4985 -4042 0
4987 -4894 -4042 0
-4990 4987 4896 4043 0
-4990 4987 -4896 -4043 0
-4990 -4987 4896 -4043 0
4990 4987 4896 -4043 0
-4990 -4987 -4896 4043 0
4990 4987 -4896 4043 0
4990 -4987 4896 4043 0
4990 -4987 -4896 -4043 0
-4989 4987 4896 0
-4989 4987 4043 0
-4989 4896 4043 0
4989 -4987 -4896 0
4989 -4987 -4043 0
4989 -4896 -4043 0
-4992 4989 4898 4044 0
-4992 4989 -4898 -4044 0
-4992 -4989 4898 -4044 0
4992 4989 4898 -4044 0
-4992 -4989 -4898 4044 0
4992 4989 -4898 4044 0
4992 -4989 4898 4044 0
4992 -4989 -4898 -4044 0
-4991 4989 4898 0
-4991 4989 4044 0
-4991 4898 4044 0
4991 -4989 -4898 0
4991 -4989 -4044 0
4991 -4898 -4044 0
-4994 4991 4900 4045 0
-4994 4991 -4900 -4045 0
-4994 -4991 4900 -4045 0
4994 4991 4900 -4045 0
-4994 -4991 -4900 4045 0
4994 4991 -4900 4045 0
4994 -4991 4900 4045 0
4994 -4991 -4900 -4045 0
-4993 4991 4900 0
-4993 4991 4045 0
-4993 4900 4045 0
4993 -4991 -4900 0
4993 -4991 -4045 0
4993 -4900 -4045 0
-4996 4993 4902 4046 0
-4996 4993 -4902 -4046 0
-4996 -4993 4902 -4046 0
4996 4993 4902 -4046 0
-4996 -4993 -4902 4046 0
4996 4993 -4902 4046 0
4996 -4993 4902 4046 0
4996 -4993 -4902 -4046 0
-4995 4993 4902 0
-4995 4993 4046 0
-4995 4902 4046 0
4995 -4993 -4902 0
4995 -4993 -4046 0
4995 -4902 -4046 0
-4998 4995 4904 4047 0
-4998 4995 -4904 -4047 0
-4998 -4995 4904 -4047 0
4998 4995 4904 -4047 0
-4998 -4995 -4904 4047 0
4998 4995 -4904 4047 0
4998 -4995 4904 4047 0
4998 -4995 -4904 -4047 0
-4997 4995 4904 0
-4997 4995 4047 0
-4997 4904 4047 0
4997 -4995 -4904 0
4997 -4995 -4047 0
4997 -4904 -4047 0
-5000 4997 4906 4048 0
-5000 4997 -4906 -4048 0
-5000 -4997 4906 -4048 0
5000 4997 4906 -4048 0
-5000 -4997 -4906 4048 0
5000 4997 -4906 4048 0
5000 -4997 4906 4048 0
5000 -4997 -4906 -4048 0
-4999 4997 4906 0
-4999 4997 4048 0
-4999 4906 4048 0
4999 -4997 -4906 0
4999 -4997 -4048 0
4999 -4906 -4048 0
-5002 4999 4908 4049 0
-5002 4999 -4908 -4049 0
-5002 -4999 4908 -4049 0
5002 4999 4908 -4049 0
-5002 -4999 -4908 4049 0
5002 4999 -4908 4049 0
5002 -4999 4908 4049 0
5002 -4999 -4908 -4049 0
-5001 4999 4908 0
-5001 4999 4049 0
-5001 4908 4049 0
5001 -4999 -4908 0
5001 -4999 -4049 0
5001 -4908 -4049 0
-5004 5001 4910 4050 0
-5004 5001 -4910 -4050 0
-5004 -5001 4910 -4050 0
5004 5001 4910 -4050 0
-5004 -5001 -4910 4050 0
5004 5001 -4910 4050 0
5004 -5001 4910 4050 0
5004 -5001 -4910 -4050 0
-5003 5001 4910 0
-5003 5001 4050 0
-5003 4910 4050 0
5003 -5001 -4910 0
5003 -5001 -4050 0
5003 -4910 -4050 0
-5006 5003 4912 4051 0
-5006 5003 -4912 -4051 0
-5006 -5003 4912 -4051 0
5006 5003 4912 -4051 0
-5006 -5003 -4912 4051 0
5006 5003 -4912 4051 0
5006 -5003 4912 4051 0
5006 -5003 -4912 -4051 0
-5005 5003 4912 0
-5005 5003 4051 0
-5005 4912 4051 0
5005 -5003 -4912 0
5005 -5003 -4051 0
5005 -4912 -4051 0
-5008 5005 4914 4052 0
-5008 5005 -4914 -4052 0
-5008 -5005 4914 -4052 0
5008 5005 4914 -4052 0
-5008 -5005 -4914 4052 0
5008 5005 -4914 4052 0
5008 -5005 4914 4052 0
5008 -5005 -4914 -4052 0
-5007 5005 4914 0
-5007 5005 4052 0
-5007 4914 4052 0
5007 -5005 -4914 0
5007 -5005 -4052 0
5007 -4914 -4052 0
-5010 5007 4916 4053 0
-5010 5007 -4916 -4053 0
-5010 -5007 4916 -4053 0
5010 5007 4916 -4053 0
-5010 -5007 -4916 4053 0
5010 5007 -4916 4053 0
5010 -5007 4916 4053 0
5010 -5007 -4916 -4053 0
-5009 5007 4916 0
-5009 5007 4053 0
-5009 4916 4053 0
5009 -5007 -4916 0
5009 -5007 -4053 0
5009 -4916 -4053 0
-5012 5009 4918 4054 0
-5012 5009 -4918 -4054 0
-5012 -5009 4918 -4054 0
5012 5009 4918 -4054 0
-5012 -5009 -4918 4054 0
5012 5009 -4918 4054 0
5012 -5009 4918 4054 0
5012 -5009 -4918 -4054 0
-5011 5009 4918 0
-5011 5009 4054 0
-5011 4918 4054 0
5011 -5009 -4918 0
5011 -5009 -4054 0
5011 -4918 -4054 0
-5014 5011 4920 4055 0
-5014 5011 -4920 -4055 0
-5014 -5011 4920 -4055 0
5014 5011 4920 -4055 0
-5014 -5011 -4920 4055 0
5014 5011 -4920 4055 0
5014 -5011 4920 4055 0
5014 -5011 -4920 -4055 0
-5013 5011 4920 0
-5013 5011 4055 0
-5013 4920 4055 0
5013 -5011 -4920 0
5013 -5011 -4055 0
5013 -4920 -4055 0
-5016 5013 4922 4056 0
-5016 5013 -4922 -4056 0
-5016 -5013 4922 -4056 0
5016 5013 4922 -4056 0
-5016 -5013 -4922 4056 0
5016 5013 -4922 4056 0
5016 -5013 4922 4056 0
5016 -5013 -4922 -4056 0
-5015 5013 4922 0
-5015 5013 4056 0
-5015 4922 4056 0
5015 -5013 -4922 0
5015 -5013 -4056 0
5015 -4922 -4056 0
-5018 5015 4924 4057 0
-5018 5015 -4924 -4057 0
-5018 -5015 4924 -4057 0
5018 5015 4924 -4057 0
-5018 -5015 -4924 4057 0
5018 5015 -4924 4057 0
5018 -5015 4924 4057 0
5018 -5015 -4924 -4057 0
-5017 5015 4924 0
-5017 5015 4057 0
-5017 4924 4057 0
5017 -5015 -4924 0
5017 -5015 -4057 0
5017 -4924 -4057 0
-5020 5017 4926 4058 0
-5020 5017 -4926 -4058 0
-5020 -5017 4926 -4058 0
5020 5017 4926 -4058 0
-5020 -5017 -4926 4058 0
5020 5017 -4926 4058 0
5020 -5017 4926 4058 0
5020 -5017 -4926 -4058 0
-5019 5017 4926 0
-5019 5017 4058 0
-5019 4926 4058 0
5019 -5017 -4926 0
5019 -5017 -4058 0
5019 -4926 -4058 0
-5022 5019 4928 4059 0
-5022 5019 -4928 -4059 0
-5022 -5019 4928 -4059 0
5022 5019 4928 -4059 0
-5022 -5019 -4928 4059 0
5022 5019 -4928 4059 0
5022 -5019 4928 4059 0
5022 -5019 -4928 -4059 0
-5021 5019 4928 0
-5021 5019 4059 0
-5021 4928 4059 0
5021 -5019 -4928 0
5021 -5019 -4059 0
5021 -4928 -4059 0
-5024 5021 4930 4060 0
-5024 5021 -4930 -4060 0
-5024 -5021 4930 -4060 0
5024 5021 4930 -4060 0
-5024 -5021 -4930 4060 0
5024 5021 -4930 4060 0
5024 -5021 4930 4060 0
5024 -5021 -4930 -4060 0
-5023 5021 4930 0
-5023 5021 4060 0
-5023 4930 4060 0
5023 -5021 -4930 0
5023 -5021 -4060 0
5023 -4930 -4060 0
-5026 5023 4932 4061 0
-5026 5023 -4932 -4061 0
-5026 -5023 4932 -4061 0
5026 5023 4932 -4061 0
-5026 -5023 -4932 4061 0
5026 5023 -4932 4061 0
5026 -5023 4932 4061 0
5026 -5023 -4932 -4061 0
-5025 5023 4932 0
-5025 5023 4061 0
-5025 4932 4061 0
5025 -5023 -4932 0
5025 -5023 -4061 0
5025 -4932 -4061 0
-5028 5025 4931 4062 0
-5028 5025 -4931 -4062 0
-5028 -5025 4931 -4062 0
5028 5025 4931 -4062 0
-5028 -5025 -4931 4062 0
5028 5025 -4931 4062 0
5028 -5025 4931 4062 0
5028 -5025 -4931 -4062 0
-5027 5025 4931 0
-5027 5025 4062 0
-5027 4931 4062 0
5027 -5025 -4931 0
5027 -5025 -4062 0
5027 -4931 -4062 0
-5030 5027 4063 0
5030 -5027 4063 0
5030 5027 -4063 0
-5030 -5027 -4063 0
-5029 5027 0
-5029 4063 0
5029 -5027 -4063 0
-5032 5029 4064 0
5032 -5029 4064 0
5032 5029 -4064 0
-5032 -5029 -4064 0
-5031 5029 0
-5031 4064 0
5031 -5029 -4064 0
-4934 5034 0
4934 -5034 0
-5033 0
4936 5033 -5036 0
-4936 -5033 -5036 0
-4936 5033 5036 0
4936 -5033 5036 0
-5035 5033 0
-5035 4936 0
5035 -5033 -4936 0
4938 5035 -5038 0
-4938 -5035 -5038 0
-4938 5035 5038 0
4938 -5035 5038 0
-5037 5035 0
-5037 4938 0
5037 -5035 -4938 0
4940 5037 -5040 0
-4940 -5037 -5040 0
-4940 5037 5040 0
4940 -5037 5040 0
-5039 5037 0
-5039 4940 0
5039 -5037 -4940 0
4942 5039 -5042 0
-4942 -5039 -5042 0
-4942 5039 5042 0
4942 -5039 5042 0
-5041 5039 0
-5041 4942 0
5041 -5039 -4942 0
4944 5041 -5044 0
-4944 -5041 -5044 0
-4944 5041 5044 0
4944 -5041 5044 0
-5043 5041 0
-5043 4944 0
5043 -5041 -4944 0
4946 5043 -5046 0
-4946 -5043 -5046 0
-4946 5043 5046 0
4946 -5043 5046 0
-5045 5043 0
-5045 4946 0
5045 -5043 -4946 0
4948 5045 -5048 0
-4948 -5045 -5048 0
-4948 5045 5048 0
4948 -5045 5048 0
-5047 5045 0
-5047 4948 0
5047 -5045 -4948 0
4950 5047 -5050 0
-4950 -5047 -5050 0
-4950 5047 5050 0
4950 -5047 5050 0
-5049 5047 0
-5049 4950 0
5049 -5047 -4950 0
4952 5049 -5052 0
-4952 -5049 -5052 0
-4952 5049 5052 0
4952 -5049 5052 0
-5051 5049 0
-5051 4952 0
5051 -5049 -4952 0
4954 5051 -5054 0
-4954 -5051 -5054 0
-4954 5051 5054 0
4954 -5051 5054 0
-5053 5051 0
-5053 4954 0
5053 -5051 -4954 0
4956 5053 -5056 0
-4956 -5053 -5056 0
-4956 5053 5056 0
4956 -5053 5056 0
-5055 5053 0
-5055 4956 0
5055 -5053 -4956 0
4958 5055 -5058 0
-4958 -5055 -5058 0
-4958 5055 5058 0
4958 -5055 5058 0
-5057 5055 0
-5057 4958 0
5057 -5055 -4958 0
4960 5057 -5060 0
-4960 -5057 -5060 0
-4960 5057 5060 0
4960 -5057 5060 0
-5059 5057 0
-5059 4960 0
5059 -5057 -4960 0
4962 5059 -5062 0
-4962 -5059 -5062 0
-4962 5059 5062 0
4962 -5059 5062 0
-5061 5059 0
-5061 4962 0
5061 -5059 -4962 0
4964 5061 -5064 0
-4964 -5061 -5064 0
-4964 5061 5064 0
4964 -5061 5064 0
-5063 5061 0
-5063 4964 0
5063 -5061 -4964 0
4966 5063 -5066 0
-4966 -5063 -5066 0
-4966 5063 5066 0
4966 -5063 5066 0
-5065 5063 0
-5065 4966 0
5065 -5063 -4966 0
4968 5065 -5068 0
-4968 -5065 -5068 0
-4968 5065 5068 0
4968 -5065 5068 0
-5067 5065 0
-5067 4968 0
5067 -5065 -4968 0
4970 5067 -5070 0
-4970 -5067 -5070 0
-4970 5067 5070 0
4970 -5067 5070 0
-5069 5067 0
-5069 4970 0
5069 -5067 -4970 0
4972 5069 -5072 0
-4972 -5069 -5072 0
-4972 5069 5072 0
4972 -5069 5072 0
-5071 5069 0
-5071 4972 0
5071 -5069 -4972 0
-5074 5071 4974 4033 0
-5074 5071 -4974 -4033 0
-5074 -5071 4974 -4033 0
5074 5071 4974 -4033 0
-5074 -5071 -4974 4033 0
5074 5071 -4974 4033 0
5074 -5071 4974 4033 0
5074 -5071 -4974 -4033 0
-5073 5071 4974 0
-5073 5071 4033 0
-5073 4974 4033 0
5073 -5071 -4974 0
5073 -5071 -4033 0
5073 -4974 -4033 0
-5076 5073 4976 4034 0
-5076 5073 -4976 -4034 0
-5076 -5073 4976 -4034 0
5076 5073 4976 -4034 0
-5076 -5073 -4976 4034 0
5076 5073 -4976 4034 0
5076 -5073 4976 4034 0
5076 -5073 -4976 -4034 0
-5075 5073 4976 0
-5075 5073 4034 0
-5075 4976 4034 0
5075 -5073 -4976 0
5075 -5073 -4034 0
5075 -4976 -4034 0
-5078 5075 4978 4035 0
-5078 5075 -4978 -4035 0
-5078 -5075 4978 -4035 0
5078 5075 4978 -4035 0
-5078 -5075 -4978 4035 0
5078 5075 -4978 4035 0
5078 -5075 4978 4035 0
5078 -5075 -4978 -4035 0
-5077 5075 4978 0
-5077 5075 4035 0
-5077 4978 4035 0
5077 -5075 -4978 0
5077 -5075 -4035 0
5077 -4978 -4035 0
-5080 5077 4980 4036 0
-5080 5077 -4980 -4036 0
-5080 -5077 4980 -4036 0
5080 5077 4980 -4036 0
-5080 -5077 -4980 4036 0
5080 5077 -4980 4036 0
5080 -5077 4980 4036 0
5080 -5077 -4980 -4036 0
-5079 5077 4980 0
-5079 5077 4036 0
-5079 4980 4036 0
5079 -5077 -4980 0
5079 -5077 -4036 0
5079 -4980 -4036 0
-5082 5079 4982 4037 0
-5082 5079 -4982 -4037 0
-5082 -5079 4982 -4037 0
5082 5079 4982 -4037 0
-5082 -5079 -4982 4037 0
5082 5079 -4982 4037 0
5082 -5079 4982 4037 0
5082 -5079 -4982 -4037 0
-5081 5079 4982 0
-5081 5079 4037 0
-5081 4982 4037 0
5081 -5079 -4982 0
5081 -5079 -4037 0
5081 -4982 -4037 0
-5084 5081 4984 4038 0
-5084 5081 -4984 -4038 0
-5084 -5081 4984 -4038 0
5084 5081 4984 -4038 0
-5084 -5081 -4984 4038 0
5084 5081 -4984 4038 0
5084 -5081 4984 4038 0
5084 -5081 -4984 -4038 0
-5083 5081 4984 0
-5083 5081 4038 0
-5083 4984 4038 0
5083 -5081 -4984 0
5083 -5081 -4038 0
5083 -4984 -4038 0
-5086 5083 4986 4039 0
-5086 5083 -4986 -4039 0
-5086 -5083 4986 -4039 0
5086 5083 4986 -4039 0
-5086 -5083 -4986 4039 0
5086 5083 -4986 4039 0
5086 -5083 4986 4039 0
5086 -5083 -4986 -4039 0
-5085 5083 4986 0
-5085 5083 4039 0
-5085 4986 4039 0
5085 -5083 -4986 0
5085 -5083 -4039 0
5085 -4986 -4039 0
-5088 5085 4988 4040 0
-5088 5085 -4988 -4040 0
-5088 -5085 4988 -4040 0
5088 5085 4988 -4040 0
-5088 -5085 -4988 4040 0
5088 5085 -4988 4040 0
5088 -5085 4988 4040 0
5088 -5085 -4988 -4040 0
-5087 5085 4988 0
-5087 5085 4040 0
-5087 4988 4040 0
5087 -5085 -4988 0
5087 -5085 -4040 0
5087 -4988 -4040 0
-5090 5087 4990 4041 0
-5090 5087 -4990 -4041 0
-5090 -5087 4990 -4041 0
5090 5087 4990 -4041 0
-5090 -5087 -4990 4041 0
5090 5087 -4990 4041 0
5090 -5087 4990 4041 0
5090 -5087 -4990 -4041 0
-5089 5087 4990 0
-5089 5087 4041 0
-5089 4990 4041 0
5089 -5087 -4990 0
5089 -5087 -4041 0
5089 -4990 -4041 0
-5092 5089 4992 4042 0
-5092 5089 -4992 -4042 0
-5092 -5089 4992 -4042 0
5092 5089 4992 -4042 0
-5092 -5089 -4992 4042 0
5092 5089 -4992 4042 0
5092 -5089 4992 4042 0
5092 -5089 -4992 -4042 0
-5091 5089 4992 0
-5091 5089 4042 0
-5091 4992 4042 0
5091 -5089 -4992 0
5091 -5089 -4042 0
5091 -4992 -4042 0
-5094 5091 4994 4043 0
-5094 5091 -4994 -4043 0
-5094 -5091 4994 -4043 0
5094 5091 4994 -4043 0
-5094 -5091 -4994 4043 0
5094 5091 -4994 4043 0
5094 -5091 4994 4043 0
5094 -5091 -4994 -4043 0
-5093 5091 4994 0
-5093 5091 4043 0
-5093 4994 4043 0
5093 -5091 -4994 0
5093 -5091 -4043 0
5093 -4994 -4043 0
-5096 5093 4996 4044 0
-5096 5093 -4996 -4044 0
-5096 -5093 4996 -4044 0
5096 5093 4996 -4044 0
-5096 -5093 -4996 4044 0
5096 5093 -4996 4044 0
5096 -5093 4996 4044 0
5096 -5093 -4996 -4044 0
-5095 5093 4996 0
-5095 5093 4044 0
-5095 4996 4044 0
5095 -5093 -4996 0
5095 -5093 -4044 0
5095 -4996 -4044 0
-5098 5095 4998 4045 0
-5098 5095 -4998 -4045 0
-5098 -5095 4998 -4045 0
5098 5095 4998 -4045 0
-5098 -5095 -4998 4045 0
5098 5095 -4998 4045 0
5098 -5095 4998 4045 0
5098 -5095 -4998 -4045 0
-5097 5095 4998 0
-5097 5095 4045 0
-5097 4998 4045 0
5097 -5095 -4998 0
5097 -5095 -4045 0
5097 -4998 -4045 0
-5100 5097 5000 4046 0
-5100 5097 -5000 -4046 0
-5100 -5097 5000 -4046 0
5100 5097 5000 -4046 0
-5100 -5097 -5000 4046 0
5100 5097 -5000 4046 0
5100 -5097 5000 4046 0
5100 -5097 -5000 -4046 0
-5099 5097 5000 0
-5099 5097 4046 0
-5099 5000 4046 0
5099 -5097 -5000 0
5099 -5097 -4046 0
5099 -5000 -4046 0
-5102 5099 5002 4047 0
-5102 5099 -5002 -4047 0
-5102 -5099 5002 -4047 0
5102 5099 5002 -4047 0
-5102 -5099 -5002 4047 0
5102 5099 -5002 4047 0
5102 -5099 5002 4047 0
5102 -5099 -5002 -4047 0
-5101 5099 5002 0
-5101 5099 4047 0
-5101 5002 4047 0
5101 -5099 -5002 0
5101 -5099 -4047 0
5101 -5002 -4047 0
-5104 5101 5004 4048 0
-5104 5101 -5004 -4048 0
-5104 -5101 5004 -4048 0
5104 5101 5004 -4048 0
-5104 -5101 -5004 4048 0
5104 5101 -5004 4048 0
5104 -5101 5004 4048 0
5104 -5101 -5004 -4048 0
-5103 5101 5004 0
-5103 5101 4048 0
-5103 5004 4048 0
5103 -5101 -5004 0
5103 -5101 -4048 0
5103 -5004 -4048 0
-5106 5103 5006 4049 0
-5106 5103 -5006 -4049 0
-5106 -5103 5006 -4049 0
5106 5103 5006 -4049 0
-5106 -5103 -5006 4049 0
5106 5103 -5006 4049 0
5106 -5103 5006 4049 0
5106 -5103 -5006 -4049 0
-5105 5103 5006 0
-5105 5103 4049 0
-5105 5006 4049 0
5105 -5103 -5006 0
5105 -5103 -4049 0
5105 -5006 -4049 0
-5108 5105 5008 4050 0
-5108 5105 -5008 -4050 0
-5108 -5105 5008 -4050 0
5108 5105 5008 -4050 0
-5108 -5105 -5008 4050 0
5108 5105 -5008 4050 0
5108 -5105 5008 4050 0
5108 -5105 -5008 -4050 0
-5107 5105 5008 0
-5107 5105 4050 0
-5107 5008 4050 0
5107 -5105 -5008 0
5107 -5105 -4050 0
5107 -5008 -4050 0
-5110 5107 5010 4051 0
-5110 5107 -5010 -4051 0
-5110 -5107 5010 -4051 0
5110 5107 5010 -4051 0
-5110 -5107 -5010 4051 0
5110 5107 -5010 4051 0
5110 -5107 5010 4051 0
5110 -5107 -5010 -4051 0
-5109 5107 5010 0
-5109 5107 4051 0
-5109 5010 4051 0
5109 -5107 -5010 0
5109 -5107 -4051 0
5109 -5010 -4051 0
-5112 5109 5012 4052 0
-5112 5109 -5012 -4052 0
-5112 -5109 5012 -4052 0
5112 5109 5012 -4052 0
-5112 -5109 -5012 4052 0
5112 5109 -5012 4052 0
5112 -5109 5012 4052 0
5112 -5109 -5012 -4052 0
-5111 5109 5012 0
-5111 5109 4052 0
-5111 5012 4052 0
5111 -5109 -5012 0
5111 -5109 -4052 0
5111 -5012 -4052 0
-5114 5111 5014 4053 0
-5114 5111 -5014 -4053 0
-5114 -5111 5014 -4053 0
5114 5111 5014 -4053 0
-5114 -5111 -5014 4053 0
5114 5111 -5014 4053 0
5114 -5111 5014 4053 0
5114 -5111 -5014 -4053 0
-5113 5111 5014 0
-5113 5111 4053 0
-5113 5014 4053 0
5113 -5111 -5014 0
5113 -5111 -4053 0
5113 -5014 -4053 0
-5116 5113 5016 4054 0
-5116 5113 -5016 -4054 0
-5116 -5113 5016 -4054 0
5116 5113 5016 -4054 0
-5116 -5113 -5016 4054 0
5116 5113 -5016 4054 0
5116 -5113 5016 4054 0
5116 -5113 -5016 -4054 0
-5115 5113 5016 0
-5115 5113 4054 0
-5115 5016 4054 0
5115 -5113 -5016 0
5115 -5113 -4054 0
5115 -5016 -4054 0
-5118 5115 5018 4055 0
-5118 5115 -5018 -4055 0
-5118 -5115 5018 -4055 0
5118 5115 5018 -4055 0
-5118 -5115 -5018 4055 0
5118 5115 -5018 4055 0
5118 -5115 5018 4055 0
5118 -5115 -5018 -4055 0
-5117 5115 5018 0
-5117 5115 4055 0
-5117 5018 4055 0
5117 -5115 -5018 0
5117 -5115 -4055 0
5117 -5018 -4055 0
-5120 5117 5020 4056 0
-5120 5117 -5020 -4056 0
-5120 -5117 5020 -4056 0
5120 5117 5020 -4056 0
-5120 -5117 -5020 4056 0
5120 5117 -5020 4056 0
5120 -5117 5020 4056 0
5120 -5117 -5020 -4056 0
-5119 5117 5020 0
-5119 5117 4056 0
-5119 5020 4056 0
5119 -5117 -5020 0
5119 -5117 -4056 0
5119 -5020 -4056 0
-5122 5119 5022 4057 0
-5122 5119 -5022 -4057 0
-5122 -5119 5022 -4057 0
5122 5119 5022 -4057 0
-5122 -5119 -5022 4057 0
5122 5119 -5022 4057 0
5122 -5119 5022 4057 0
5122 -5119 -5022 -4057 0
-5121 5119 5022 0
-5121 5119 4057 0
-5121 5022 4057 0
5121 -5119 -5022 0
5121 -5119 -4057 0
5121 -5022 -4057 0
-5124 5121 5024 4058 0
-5124 5121 -5024 -4058 0
-5124 -5121 5024 -4058 0
5124 5121 5024 -4058 0
-5124 -5121 -5024 4058 0
5124 5121 -5024 4058 0
5124 -5121 5024 4058 0
5124 -5121 -5024 -4058 0
-5123 5121 5024 0
-5123 5121 4058 0
-5123 5024 4058 0
5123 -5121 -5024 0
5123 -5121 -4058 0
5123 -5024 -4058 0
-5126 5123 5026 4059 0
-5126 5123 -5026 -4059 0
-5126 -5123 5026 -4059 0
5126 5123 5026 -4059 0
-5126 -5123 -5026 4059 0
5126 5123 -5026 4059 0
5126 -5123 5026 4059 0
5126 -5123 -5026 -4059 0
-5125 5123 5026 0
-5125 5123 4059 0
-5125 5026 4059 0
5125 -5123 -5026 0
5125 -5123 -4059 0
5125 -5026 -4059 0
-5128 5125 5028 4060 0
-5128 5125 -5028 -4060 0
-5128 -5125 5028 -4060 0
5128 5125 5028 -4060 0
-5128 -5125 -5028 4060 0
5128 5125 -5028 4060 0
5128 -5125 5028 4060 0
5128 -5125 -5028 -4060 0
-5127 5125 5028 0
-5127 5125 4060 0
-5127 5028 4060 0
5127 -5125 -5028 0
5127 -5125 -4060 0
5127 -5028 -4060 0
-5130 5127 5030 4061 0
-5130 5127 -5030 -4061 0
-5130 -5127 5030 -4061 0
5130 5127 5030 -4061 0
-5130 -5127 -5030 4061 0
5130 5127 -5030 4061 0
5130 -5127 5030 4061 0
5130 -5127 -5030 -4061 0
-5129 5127 5030 0
-5129 5127 4061 0
-5129 5030 4061 0
5129 -5127 -5030 0
5129 -5127 -4061 0
5129 -5030 -4061 0
-5132 5129 5032 4062 0
-5132 5129 -5032 -4062 0
-5132 -5129 5032 -4062 0
5132 5129 5032 -4062 0
-5132 -5129 -5032 4062 0
5132 5129 -5032 4062 0
5132 -5129 5032 4062 0
5132 -5129 -5032 -4062 0
-5131 5129 5032 0
-5131 5129 4062 0
-5131 5032 4062 0
5131 -5129 -5032 0
5131 -5129 -4062 0
5131 -5032 -4062 0
-5134 5131 5031 4063 0
-5134 5131 -5031 -4063 0
-5134 -5131 5031 -4063 0
5134 5131 5031 -4063 0
-5134 -5131 -5031 4063 0
5134 5131 -5031 4063 0
5134 -5131 5031 4063 0
5134 -5131 -5031 -4063 0
-5133 5131 5031 0
-5133 5131 4063 0
-5133 5031 4063 0
5133 -5131 -5031 0
5133 -5131 -4063 0
5133 -5031 -4063 0
-5136 5133 4064 0
5136 -5133 4064 0
5136 5133 -4064 0
-5136 -5133 -4064 0
-5135 5133 0
-5135 4064 0
5135 -5133 -4064 0
-5034 5138 0
5034 -5138 0
-5137 0
5036 5137 -5140 0
-5036 -5137 -5140 0
-5036 5137 5140 0
5036 -5137 5140 0
-5139 5137 0
-5139 5036 0
5139 -5137 -5036 0
5038 5139 -5142 0
-5038 -5139 -5142 0
-5038 5139 5142 0
5038 -5139 5142 0
-5141 5139 0
-5141 5038 0
5141 -5139 -5038 0
5040 5141 -5144 0
-5040 -5141 -5144 0
-5040 5141 5144 0
5040 -5141 5144 0
-5143 5141 0
-5143 5040 0
5143 -5141 -5040 0
5042 5143 -5146 0
-5042 -5143 -5146 0
-5042 5143 5146 0
5042 -5143 5146 0
-5145 5143 0
-5145 5042 0
5145 -5143 -5042 0
5044 5145 -5148 0
-5044 -5145 -5148 0
-5044 5145 5148 0
5044 -5145 5148 0
-5147 5145 0
-5147 5044 0
5147 -5145 -5044 0
5046 5147 -5150 0
-5046 -5147 -5150 0
-5046 5147 5150 0
5046 -5147 5150 0
-5149 5147 0
-5149 5046 0
5149 -5147 -5046 0
5048 5149 -5152 0
-5048 -5149 -5152 0
-5048 5149 5152 0
5048 -5149 5152 0
-5151 5149 0
-5151 5048 0
5151 -5149 -5048 0
5050 5151 -5154 0
-5050 -5151 -5154 0
-5050 5151 5154 0
5050 -5151 5154 0
-5153 5151 0
-5153 5050 0
5153 -5151 -5050 0
5052 5153 -5156 0
-5052 -5153 -5156 0
-5052 5153 5156 0
5052 -5153 5156 0
-5155 5153 0
-5155 5052 0
5155 -5153 -5052 0
5054 5155 -5158 0
-5054 -5155 -5158 0
-5054 5155 5158 0
5054 -5155 5158 0
-5157 5155 0
-5157 5054 0
5157 -5155 -5054 0
5056 5157 -5160 0
-5056 -5157 -5160 0
-5056 5157 5160 0
5056 -5157 5160 0
-5159 5157 0
-5159 5056 0
5159 -5157 -5056 0
5058 5159 -5162 0
-5058 -5159 -5162 0
-5058 5159 5162 0
5058 -5159 5162 0
-5161 5159 0
-5161 5058 0
5161 -5159 -5058 0
5060 5161 -5164 0
-5060 -5161 -5164 0
-5060 5161 5164 0
5060 -5161 5164 0
-5163 5161 0
-5163 5060 0
5163 -5161 -5060 0
5062 5163 -5166 0
-5062 -5163 -5166 0
-5062 5163 5166 0
5062 -5163 5166 0
-5165 5163 0
-5165 5062 0
5165 -5163 -5062 0
5064 5165 -5168 0
-5064 -5165 -5168 0
-5064 5165 5168 0
5064 -5165 5168 0
-5167 5165 0
-5167 5064 0
5167 -5165 -5064 0
5066 5167 -5170 0
-5066 -5167 -5170 0
-5066 5167 5170 0
5066 -5167 5170 0
-5169 5167 0
-5169 5066 0
5169 -5167 -5066 0
5068 5169 -5172 0
-5068 -5169 -5172 0
-5068 5169 5172 0
5068 -5169 5172 0
-5171 5169 0
-5171 5068 0
5171 -5169 -5068 0
5070 5171 -5174 0
-5070 -5171 -5174 0
-5070 5171 5174 0
5070 -5171 5174 0
-5173 5171 0
-5173 5070 0
5173 -5171 -5070 0
5072 5173 -5176 0
-5072 -5173 -5176 0
-5072 5173 5176 0
5072 -5173 5176 0
-5175 5173 0
-5175 5072 0
5175 -5173 -5072 0
5074 5175 -5178 0
-5074 -5175 -5178 0
-5074 5175 5178 0
5074 -5175 5178 0
-5177 5175 0
-5177 5074 0
5177 -5175 -5074 0
5076 5177 -5180 0
-5076 -5177 -5180 0
-5076 5177 5180 0
5076 -5177 5180 0
-5179 5177 0
-5179 5076 0
5179 -5177 -5076 0
-5182 5179 5078 4033 0
-5182 5179 -5078 -4033 0
-5182 -5179 5078 -4033 0
5182 5179 5078 -4033 0
-5182 -5179 -5078 4033 0
5182 5179 -5078 4033 0
5182 -5179 5078 4033 0
5182 -5179 -5078 -4033 0
-5181 5179 5078 0
-5181 5179 4033 0
-5181 5078 4033 0
5181 -5179 -5078 0
5181 -5179 -4033 0
5181 -5078 -4033 0
-5184 5181 5080 4034 0
-5184 5181 -5080 -4034 0
-5184 -5181 5080 -4034 0
5184 5181 5080 -4034 0
-5184 -5181 -5080 4034 0
5184 5181 -5080 4034 0
5184 -5181 5080 4034 0
5184 -5181 -5080 -4034 0
-5183 5181 5080 0
-5183 5181 4034 0
-5183 5080 4034 0
5183 -5181 -5080 0
5183 -5181 -4034 0
5183 -5080 -4034 0
-5186 5183 5082 4035 0
-5186 5183 -5082 -4035 0
-5186 -5183 5082 -4035 0
5186 5183 5082 -4035 0
-5186 -5183 -5082 4035 0
5186 5183 -5082 4035 0
5186 -5183 5082 4035 0
5186 -5183 -5082 -4035 0
-5185 5183 5082 0
-5185 5183 4035 0
-5185 5082 4035 0
5185 -5183 -5082 0
5185 -5183 -4035 0
5185 -5082 -4035 0
-5188 5185 5084 4036 0
-5188 5185 -5084 -4036 0
-5188 -5185 5084 -4036 0
5188 5185 5084 -4036 0
-5188 -5185 -5084 4036 0
5188 5185 -5084 4036 0
5188 -5185 5084 4036 0
5188 -5185 -5084 -4036 0
-5187 5185 5084 0
-5187 5185 4036 0
-5187 5084 4036 0
5187 -5185 -5084 0
5187 -5185 -4036 0
5187 -5084 -4036 0
-5190 5187 5086 4037 0
-5190 5187 -5086 -4037 0
-5190 -5187 5086 -4037 0
5190 5187 5086 -4037 0
-5190 -5187 -5086 4037 0
5190 5187 -5086 4037 0
5190 -5187 5086 4037 0
5190 -5187 -5086 -4037 0
-5189 5187 5086 0
-5189 5187 4037 0
-5189 5086 4037 0
5189 -5187 -5086 0
5189 -5187 -4037 0
5189 -5086 -4037 0
-5192 5189 5088 4038 0
-5192 5189 -5088 -4038 0
-5192 -5189 5088 -4038 0
5192 5189 5088 -4038 0
-5192 -5189 -5088 4038 0
5192 5189 -5088 4038 0
5192 -5189 5088 4038 0
5192 -5189 -5088 -4038 0
-5191 5189 5088 0
-5191 5189 4038 0
-5191 5088 4038 0
5191 -5189 -5088 0
5191 -5189 -4038 0
5191 -5088 -4038 0
-5194 5191 5090 4039 0
-5194 5191 -5090 -4039 0
-5194 -5191 5090 -4039 0
5194 5191 5090 -4039 0
-5194 -5191 -5090 4039 0
5194 5191 -5090 4039 0
5194 -5191 5090 4039 0
5194 -5191 -5090 -4039 0
-5193 5191 5090 0
-5193 5191 4039 0
-5193 5090 4039 0
5193 -5191 -5090 0
5193 -5191 -4039 0
5193 -5090 -4039 0
-5196 5193 5092 4040 0
-5196 5193 -5092 -4040 0
-5196 -5193 5092 -4040 0
5196 5193 5092 -4040 0
-5196 -5193 -5092 4040 0
5196 5193 -5092 4040 0
5196 -5193 5092 4040 0
5196 -5193 -5092 -4040 0
-5195 5193 5092 0
-5195 5193 4040 0
-5195 5092 4040 0
5195 -5193 -5092 0
5195 -5193 -4040 0
5195 -5092 -4040 0
-5198 5195 5094 4041 0
-5198 5195 -5094 -4041 0
-5198 -5195 5094 -4041 0
5198 5195 5094 -4041 0
-5198 -5195 -5094 4041 0
5198 5195 -5094 4041 0
5198 -5195 5094 4041 0
5198 -5195 -5094 -4041 0
-5197 5195 5094 0
-5197 5195 4041 0
-5197 5094 4041 0
5197 -5195 -5094 0
5197 -5195 -4041 0
5197 -5094 -4041 0
-5200 5197 5096 4042 0
-5200 5197 -5096 -4042 0
-5200 -5197 5096 -4042 0
5200 5197 5096 -4042 0
-5200 -5197 -5096 4042 0
5200 5197 -5096 4042 0
5200 -5197 5096 4042 0
5200 -5197 -5096 -4042 0
-5199 5197 5096 0
-5199 5197 4042 0
-5199 5096 4042 0
5199 -5197 -5096 0
5199 -5197 -4042 0
5199 -5096 -4042 0
-5202 5199 5098 4043 0
-5202 5199 -5098 -4043 0
-5202 -5199 5098 -4043 0
5202 5199 5098 -4043 0
-5202 -5199 -5098 4043 0
5202 5199 -5098 4043 0
5202 -5199 5098 4043 0
5202 -5199 -5098 -4043 0
-5201 5199 5098 0
-5201 5199 4043 0
-5201 5098 4043 0
5201 -5199 -5098 0
5201 -5199 -4043 0
5201 -5098 -4043 0
-5204 5201 5100 4044 0
-5204 5201 -5100 -4044 0
-5204 -5201 5100 -4044 0
5204 5201 5100 -4044 0
-5204 -5201 -5100 4044 0
5204 5201 -5100 4044 0
5204 -5201 5100 4044 0
5204 -5201 -5100 -4044 0
-5203 5201 5100 0
-5203 5201 4044 0
-5203 5100 4044 0
5203 -5201 -5100 0
5203 -5201 -4044 0
5203 -5100 -4044 0
-5206 5203 5102 4045 0
-5206 5203 -5102 -4045 0
-5206 -5203 5102 -4045 0
5206 5203 5102 -4045 0
-5206 -5203 -5102 4045 0
5206 5203 -5102 4045 0
5206 -5203 5102 4045 0
5206 -5203 -5102 -4045 0
-5205 5203 5102 0
-5205 5203 4045 0
-5205 5102 4045 0
5205 -5203 -5102 0
5205 -5203 -4045 0
5205 -5102 -4045 0
-5208 5205 5104 4046 0
-5208 5205 -5104 -4046 0
-5208 -5205 5104 -4046 0
5208 5205 5104 -4046 0
-5208 -5205 -5104 4046 0
5208 5205 -5104 4046 0
5208 -5205 5104 4046 0
5208 -5205 -5104 -4046 0
-5207 5205 5104 0
-5207 5205 4046 0
-5207 5104 4046 0
5207 -5205 -5104 0
5207 -5205 -4046 0
5207 -5104 -4046 0
-5210 5207 5106 4047 0
-5210 5207 -5106 -4047 0
-5210 -5207 5106 -4047 0
5210 5207 5106 -4047 0
-5210 -5207 -5106 4047 0
5210 5207 -5106 4047 0
5210 -5207 5106 4047 0
5210 -5207 -5106 -4047 0
-5209 5207 5106 0
-5209 5207 4047 0
-5209 5106 4047 0
5209 -5207 -5106 0
5209 -5207 -4047 0
5209 -5106 -4047 0
-5212 5209 5108 4048 0
-5212 5209 -5108 -4048 0
-5212 -5209 5108 -4048 0
5212 5209 5108 -4048 0
-5212 -5209 -5108 4048 0
5212 5209 -5108 4048 0
5212 -5209 5108 4048 0
5212 -5209 -5108 -4048 0
-5211 5209 5108 0
-5211 5209 4048 0
-5211 5108 4048 0
5211 -5209 -5108 0
5211 -5209 -4048 0
5211 -5108 -4048 0
-5214 5211 5110 4049 0
-5214 5211 -5110 -4049 0
-5214 -5211 5110 -4049 0
5214 5211 5110 -4049 0
-5214 -5211 -5110 4049 0
5214 5211 -5110 4049 0
5214 -5211 5110 4049 0
5214 -5211 -5110 -4049 0
-5213 5211 5110 0
-5213 5211 4049 0
-5213 5110 4049 0
5213 -5211 -5110 0
5213 -5211 -4049 0
5213 -5110 -4049 0
-5216 5213 5112 4050 0
-5216 5213 -5112 -4050 0
-5216 -5213 5112 -4050 0
5216 5213 5112 -4050 0
-5216 -5213 -5112 4050 0
5216 5213 -5112 4050 0
5216 -5213 5112 4050 0
5216 -5213 -5112 -4050 0
-5215 5213 5112 0
-5215 5213 4050 0
-5215 5112 4050 0
5215 -5213 -5112 0
5215 -5213 -4050 0
5215 -5112 -4050 0
-5218 5215 5114 4051 0
-5218 5215 -5114 -4051 0
-5218 -5215 5114 -4051 0
5218 5215 5114 -4051 0
-5218 -5215 -5114 4051 0
5218 5215 -5114 4051 0
5218 -5215 5114 4051 0
5218 -5215 -5114 -4051 0
-5217 5215 5114 0
-5217 5215 4051 0
-5217 5114 4051 0
5217 -5215 -5114 0
5217 -5215 -4051 0
5217 -5114 -4051 0
-5220 5217 5116 4052 0
-5220 5217 -5116 -4052 0
-5220 -5217 5116 -4052 0
5220 5217 5116 -4052 0
-5220 -5217 -5116 4052 0
5220 5217 -5116 4052 0
5220 -5217 5116 4052 0
5220 -5217 -5116 -4052 0
-5219 5217 5116 0
-5219 5217 4052 0
-5219 5116 4052 0
5219 -5217 -5116 0
5219 -5217 -4052 0
5219 -5116 -4052 0
-5222 5219 5118 4053 0
-5222 5219 -5118 -4053 0
-5222 -5219 5118 -4053 0
5222 5219 5118 -4053 0
-5222 -5219 -5118 4053 0
5222 5219 -5118 4053 0
5222 -5219 5118 4053 0
5222 -5219 -5118 -4053 0
-5221 5219 5118 0
-5221 5219 4053 0
-5221 5118 4053 0
5221 -5219 -5118 0
5221 -5219 -4053 0
5221 -5118 -4053 0
-5224 5221 5120 4054 0
-5224 5221 -5120 -4054 0
-5224 -5221 5120 -4054 0
5224 5221 5120 -4054 0
-5224 -5221 -5120 4054 0
5224 5221 -5120 4054 0
5224 -5221 5120 4054 0
5224 -5221 -5120 -4054 0
-5223 5221 5120 0
-5223 5221 4054 0
-5223 5120 4054 0
5223 -5221 -5120 0
5223 -5221 -4054 0
5223 -5120 -4054 0
-5226 5223 5122 4055 0
-5226 5223 -5122 -4055 0
-5226 -5223 5122 -4055 0
5226 5223 5122 -4055 0
-5226 -5223 -5122 4055 0
5226 5223 -5122 4055 0
5226 -5223 5122 4055 0
5226 -5223 -5122 -4055 0
-5225 5223 5122 0
-5225 5223 4055 0
-5225 5122 4055 0
5225 -5223 -5122 0
5225 -5223 -4055 0
5225 -5122 -4055 0
-5228 5225 5124 4056 0
-5228 5225 -5124 -4056 0
-5228 -5225 5124 -4056 0
5228 5225 5124 -4056 0
-5228 -5225 -5124 4056 0
5228 5225 -5124 4056 0
5228 -5225 5124 4056 0
5228 -5225 -5124 -4056 0
-5227 5225 5124 0
-5227 5225 4056 0
-5227 5124 4056 0
5227 -5225 -5124 0
5227 -5225 -4056 0
5227 -5124 -4056 0
-5230 5227 5126 4057 0
-5230 5227 -5126 -4057 0
-5230 -5227 5126 -4057 0
5230 5227 5126 -4057 0
-5230 -5227 -5126 4057 0
5230 5227 -5126 4057 0
5230 -5227 5126 4057 0
5230 -5227 -5126 -4057 0
-5229 5227 5126 0
-5229 5227 4057 0
-5229 5126 4057 0
5229 -5227 -5126 0
5229 -5227 -4057 0
5229 -5126 -4057 0
-5232 5229 5128 4058 0
-5232 5229 -5128 -4058 0
-5232 -5229 5128 -4058 0
5232 5229 5128 -4058 0
-5232 -5229 -5128 4058 0
5232 5229 -5128 4058 0
5232 -5229 5128 4058 0
5232 -5229 -5128 -4058 0
-5231 5229 5128 0
-5231 5229 4058 0
-5231 5128 4058 0
5231 -5229 -5128 0
5231 -5229 -4058 0
5231 -5128 -4058 0
-5234 5231 5130 4059 0
-5234 5231 -5130 -4059 0
-5234 -5231 5130 -4059 0
5234 5231 5130 -4059 0
-5234 -5231 -5130 4059 0
5234 5231 -5130 4059 0
5234 -5231 5130 4059 0
5234 -5231 -5130 -4059 0
-5233 5231 5130 0
-5233 5231 4059 0
-5233 5130 4059 0
5233 -5231 -5130 0
5233 -5231 -4059 0
5233 -5130 -4059 0
-5236 5233 5132 4060 0
-5236 5233 -5132 -4060 0
-5236 -5233 5132 -4060 0
5236 5233 5132 -4060 0
-5236 -5233 -5132 4060 0
5236 5233 -5132 4060 0
5236 -5233 5132 4060 0
5236 -5233 -5132 -4060 0
-5235 5233 5132 0
-5235 5233 4060 0
-5235 5132 4060 0
5235 -5233 -5132 0
5235 -5233 -4060 0
5235 -5132 -4060 0
-5238 5235 5134 4061 0
-5238 5235 -5134 -4061 0
-5238 -5235 5134 -4061 0
5238 5235 5134 -4061 0
-5238 -5235 -5134 4061 0
5238 5235 -5134 4061 0
5238 -5235 5134 4061 0
5238 -5235 -5134 -4061 0
-5237 5235 5134 0
-5237 5235 4061 0
-5237 5134 4061 0
5237 -5235 -5134 0
5237 -5235 -4061 0
5237 -5134 -4061 0
-5240 5237 5136 4062 0
-5240 5237 -5136 -4062 0
-5240 -5237 5136 -4062 0
5240 5237 5136 -4062 0
-5240 -5237 -5136 4062 0
5240 5237 -5136 4062 0
5240 -5237 5136 4062 0
5240 -5237 -5136 -4062 0
-5239 5237 5136 0
-5239 5237 4062 0
-5239 5136 4062 0
5239 -5237 -5136 0
5239 -5237 -4062 0
5239 -5136 -4062 0
-5242 5239 5135 4063 0
-5242 5239 -5135 -4063 0
-5242 -5239 5135 -4063 0
5242 5239 5135 -4063 0
-5242 -5239 -5135 4063 0
5242 5239 -5135 4063 0
5242 -5239 5135 4063 0
5242 -5239 -5135 -4063 0
-5241 5239 5135 0
-5241 5239 4063 0
-5241 5135 4063 0
5241 -5239 -5135 0
5241 -5239 -4063 0
5241 -5135 -4063 0
-5244 5241 4064 0
5244 -5241 4064 0
5244 5241 -4064 0
-5244 -5241 -4064 0
-5243 5241 0
-5243 4064 0
5243 -5241 -4064 0
-5138 5246 0
5138 -5246 0
-5245 0
5140 5245 -5248 0
-5140 -5245 -5248 0
-5140 5245 5248 0
5140 -5245 5248 0
-5247 5245 0
-5247 5140 0
5247 -5245 -5140 0
5142 5247 -5250 0
-5142 -5247 -5250 0
-5142 5247 5250 0
5142 -5247 5250 0
-5249 5247 0
-5249 5142 0
5249 -5247 -5142 0
5144 5249 -5252 0
-5144 -5249 -5252 0
-5144 5249 5252 0
5144 -5249 5252 0
-5251 5249 0
-5251 5144 0
5251 -5249 -5144 0
5146 5251 -5254 0
-5146 -5251 -5254 0
-5146 5251 5254 0
5146 -5251 5254 0
-5253 5251 0
-5253 5146 0
5253 -5251 -5146 0
5148 5253 -5256 0
-5148 -5253 -5256 0
-5148 5253 5256 0
5148 -5253 5256 0
-5255 5253 0
-5255 5148 0
5255 -5253 -5148 0
5150 5255 -5258 0
-5150 -5255 -5258 0
-5150 5255 5258 0
5150 -5255 5258 0
-5257 5255 0
-5257 5150 0
5257 -5255 -5150 0
5152 5257 -5260 0
-5152 -5257 -5260 0
-5152 5257 5260 0
5152 -5257 5260 0
-5259 5257 0
-5259 5152 0
5259 -5257 -5152 0
5154 5259 -5262 0
-5154 -5259 -5262 0
-5154 5259 5262 0
5154 -5259 5262 0
-5261 5259 0
-5261 5154 0
5261 -5259 -5154 0
5156 5261 -5264 0
-5156 -5261 -5264 0
-5156 5261 5264 0
5156 -5261 5264 0
-5263 5261 0
-5263 5156 0
5263 -5261 -5156 0
5158 5263 -5266 0
-5158 -5263 -5266 0
-5158 5263 5266 0
5158 -5263 5266 0
-5265 5263 0
-5265 5158 0
5265 -5263 -5158 0
5160 5265 -5268 0
-5160 -5265 -5268 0
-5160 5265 5268 0
5160 -5265 5268 0
-5267 5265 0
-5267 5160 0
5267 -5265 -5160 0
5162 5267 -5270 0
-5162 -5267 -5270 0
-5162 5267 5270 0
5162 -5267 5270 0
-5269 5267 0
-5269 5162 0
5269 -5267 -5162 0
5164 5269 -5272 0
-5164 -5269 -5272 0
-5164 5269 5272 0
5164 -5269 5272 0
-5271 5269 0
-5271 5164 0
5271 -5269 -5164 0
5166 5271 -5274 0
-5166 -5271 -5274 0
-5166 5271 5274 0
5166 -5271 5274 0
-5273 5271 0
-5273 5166 0
5273 -5271 -5166 0
5168 5273 -5276 0
-5168 -5273 -5276 0
-5168 5273 5276 0
5168 -5273 5276 0
-5275 5273 0
-5275 5168 0
5275 -5273 -5168 0
5170 5275 -5278 0
-5170 -5275 -5278 0
-5170 5275 5278 0
5170 -5275 5278 0
-5277 5275 0
-5277 5170 0
5277 -5275 -5170 0
5172 5277 -5280 0
-5172 -5277 -5280 0
-5172 5277 5280 0
5172 -5277 5280 0
-5279 5277 0
-5279 5172 0
5279 -5277 -5172 0
5174 5279 -5282 0
-5174 -5279 -5282 0
-5174 5279 5282 0
5174 -5279 5282 0
-5281 5279 0
-5281 5174 0
5281 -5279 -5174 0
5176 5281 -5284 0
-5176 -5281 -5284 0
-5176 5281 5284 0
5176 -5281 5284 0
-5283 5281 0
-5283 5176 0
5283 -5281 -5176 0
5178 5283 -5286 0
-5178 -5283 -5286 0
-5178 5283 5286 0
5178 -5283 5286 0
-5285 5283 0
-5285 5178 0
5285 -5283 -5178 0
5180 5285 -5288 0
-5180 -5285 -5288 0
-5180 5285 5288 0
5180 -5285 5288 0
-5287 5285 0
-5287 5180 0
5287 -5285 -5180 0
5182 5287 -5290 0
-5182 -5287 -5290 0
-5182 5287 5290 0
5182 -5287 5290 0
-5289 5287 0
-5289 5182 0
5289 -5287 -5182 0
5184 5289 -5292 0
-5184 -5289 -5292 0
-5184 5289 5292 0
5184 -5289 5292 0
-5291 5289 0
-5291 5184 0
5291 -5289 -5184 0
5186 5291 -5294 0
-5186 -5291 -5294 0
-5186 5291 5294 0
5186 -5291 5294 0
-5293 5291 0
-5293 5186 0
5293 -5291 -5186 0
5188 5293 -5296 0
-5188 -5293 -5296 0
-5188 5293 5296 0
5188 -5293 5296 0
-5295 5293 0
-5295 5188 0
5295 -5293 -5188 0
5190 5295 -5298 0
-5190 -5295 -5298 0
-5190 5295 5298 0
5190 -5295 5298 0
-5297 5295 0
-5297 5190 0
5297 -5295 -5190 0
-5300 5297 5192 4033 0
-5300 5297 -5192 -4033 0
-5300 -5297 5192 -4033 0
5300 5297 5192 -4033 0
-5300 -5297 -5192 4033 0
5300 5297 -5192 4033 0
5300 -5297 5192 4033 0
5300 -5297 -5192 -4033 0
-5299 5297 5192 0
-5299 5297 4033 0
-5299 5192 4033 0
5299 -5297 -5192 0
5299 -5297 -4033 0
5299 -5192 -4033 0
-5302 5299 5194 4034 0
-5302 5299 -5194 -4034 0
-5302 -5299 5194 -4034 0
5302 5299 5194 -4034 0
-5302 -5299 -5194 4034 0
5302 5299 -5194 4034 0
5302 -5299 5194 4034 0
5302 -5299 -5194 -4034 0
-5301 5299 5194 0
-5301 5299 4034 0
-5301 5194 4034 0
5301 -5299 -5194 0
5301 -5299 -4034 0
5301 -5194 -4034 0
-5304 5301 5196 4035 0
-5304 5301 -5196 -4035 0
-5304 -5301 5196 -4035 0
5304 5301 5196 -4035 0
-5304 -5301 -5196 4035 0
5304 5301 -5196 4035 0
5304 -5301 5196 4035 0
5304 -5301 -5196 -4035 0
-5303 5301 5196 0
-5303 5301 4035 0
-5303 5196 4035 0
5303 -5301 -5196 0
5303 -5301 -4035 0
5303 -5196 -4035 0
-5306 5303 5198 4036 0
-5306 5303 -5198 -4036 0
-5306 -5303 5198 -4036 0
5306 5303 5198 -4036 0
-5306 -5303 -5198 4036 0
5306 5303 -5198 4036 0
5306 -5303 5198 4036 0
5306 -5303 -5198 -4036 0
-5305 5303 5198 0
-5305 5303 4036 0
-5305 5198 4036 0
5305 -5303 -5198 0
5305 -5303 -4036 0
5305 -5198 -4036 0
-5308 5305 5200 4037 0
-5308 5305 -5200 -4037 0
-5308 -5305 5200 -4037 0
5308 5305 5200 -4037 0
-5308 -5305 -5200 4037 0
5308 5305 -5200 4037 0
5308 -5305 5200 4037 0
5308 -5305 -5200 -4037 0
-5307 5305 5200 0
-5307 5305 4037 0
-5307 5200 4037 0
5307 -5305 -5200 0
5307 -5305 -4037 0
5307 -5200 -4037 0
-5310 5307 5202 4038 0
-5310 5307 -5202 -4038 0
-5310 -5307 5202 -4038 0
5310 5307 5202 -4038 0
-5310 -5307 -5202 4038 0
5310 5307 -5202 4038 0
5310 -5307 5202 4038 0
5310 -5307 -5202 -4038 0
-5309 5307 5202 0
-5309 5307 4038 0
-5309 5202 4038 0
5309 -5307 -5202 0
5309 -5307 -4038 0
5309 -5202 -4038 0
-5312 5309 5204 4039 0
-5312 5309 -5204 -4039 0
-5312 -5309 5204 -4039 0
5312 5309 5204 -4039 0
-5312 -5309 -5204 4039 0
5312 5309 -5204 4039 0
5312 -5309 5204 4039 0
5312 -5309 -5204 -4039 0
-5311 5309 5204 0
-5311 5309 4039 0
-5311 5204 4039 0
5311 -5309 -5204 0
5311 -5309 -4039 0
5311 -5204 -4039 0
-5314 5311 5206 4040 0
-5314 5311 -5206 -4040 0
-5314 -5311 5206 -4040 0
5314 5311 5206 -4040 0
-5314 -5311 -5206 4040 0
5314 5311 -5206 4040 0
5314 -5311 5206 4040 0
5314 -5311 -5206 -4040 0
-5313 5311 5206 0
-5313 5311 4040 0
-5313 5206 4040 0
5313 -5311 -5206 0
5313 -5311 -4040 0
5313 -5206 -4040 0
-5316 5313 5208 4041 0
-5316 5313 -5208 -4041 0
-5316 -5313 5208 -4041 0
5316 5313 5208 -4041 0
-5316 -5313 -5208 4041 0
5316 5313 -5208 4041 0
5316 -5313 5208 4041 0
5316 -5313 -5208 -4041 0
-5315 5313 5208 0
-5315 5313 4041 0
-5315 5208 4041 0
5315 -5313 -5208 0
5315 -5313 -4041 0
5315 -5208 -4041 0
-5318 5315 5210 4042 0
-5318 5315 -5210 -4042 0
-5318 -5315 5210 -4042 0
5318 5315 5210 -4042 0
-5318 -5315 -5210 4042 0
5318 5315 -5210 4042 0
5318 -5315 5210 4042 0
5318 -5315 -5210 -4042 0
-5317 5315 5210 0
-5317 5315 4042 0
-5317 5210 4042 0
5317 -5315 -5210 0
5317 -5315 -4042 0
5317 -5210 -4042 0
-5320 5317 5212 4043 0
-5320 5317 -5212 -4043 0
-5320 -5317 5212 -4043 0
5320 5317 5212 -4043 0
-5320 -5317 -5212 4043 0
5320 5317 -5212 4043 0
5320 -5317 5212 4043 0
5320 -5317 -5212 -4043 0
-5319 5317 5212 0
-5319 5317 4043 0
-5319 5212 4043 0
5319 -5317 -5212 0
5319 -5317 -4043 0
5319 -5212 -4043 0
-5322 5319 5214 4044 0
-5322 5319 -5214 -4044 0
-5322 -5319 5214 -4044 0
5322 5319 5214 -4044 0
-5322 -5319 -5214 4044 0
5322 5319 -5214 4044 0
5322 -5319 5214 4044 0
5322 -5319 -5214 -4044 0
-5321 5319 5214 0
-5321 5319 4044 0
-5321 5214 4044 0
5321 -5319 -5214 0
5321 -5319 -4044 0
5321 -5214 -4044 0
-5324 5321 5216 4045 0
-5324 5321 -5216 -4045 0
-5324 -5321 5216 -4045 0
5324 5321 5216 -4045 0
-5324 -5321 -5216 4045 0
5324 5321 -5216 4045 0
5324 -5321 5216 4045 0
5324 -5321 -5216 -4045 0
-5323 5321 5216 0
-5323 5321 4045 0
-5323 5216 4045 0
5323 -5321 -5216 0
5323 -5321 -4045 0
5323 -5216 -4045 0
-5326 5323 5218 4046 0
-5326 5323 -5218 -4046 0
-5326 -5323 5218 -4046 0
5326 5323 5218 -4046 0
-5326 -5323 -5218 4046 0
5326 5323 -5218 4046 0
5326 -5323 5218 4046 0
5326 -5323 -5218 -4046 0
-5325 5323 5218 0
-5325 5323 4046 0
-5325 5218 4046 0
5325 -5323 -5218 0
5325 -5323 -4046 0
5325 -5218 -4046 0
-5328 5325 5220 4047 0
-5328 5325 -5220 -4047 0
-5328 -5325 5220 -4047 0
5328 5325 5220 -4047 0
-5328 -5325 -5220 4047 0
5328 5325 -5220 4047 0
5328 -5325 5220 4047 0
5328 -5325 -5220 -4047 0
-5327 5325 5220 0
-5327 5325 4047 0
-5327 5220 4047 0
5327 -5325 -5220 0
5327 -5325 -4047 0
5327 -5220 -4047 0
-5330 5327 5222 4048 0
-5330 5327 -5222 -4048 0
-5330 -5327 5222 -4048 0
5330 5327 5222 -4048 0
-5330 -5327 -5222 4048 0
5330 5327 -5222 4048 0
5330 -5327 5222 4048 0
5330 -5327 -5222 -4048 0
-5329 5327 5222 0
-5329 5327 4048 0
-5329 5222 4048 0
5329 -5327 -5222 0
5329 -5327 -4048 0
5329 -5222 -4048 0
-5332 5329 5224 4049 0
-5332 5329 -5224 -4049 0
-5332 -5329 5224 -4049 0
5332 5329 5224 -4049 0
-5332 -5329 -5224 4049 0
5332 5329 -5224 4049 0
5332 -5329 5224 4049 0
5332 -5329 -5224 -4049 0
-5331 5329 5224 0
-5331 5329 4049 0
-5331 5224 4049 0
5331 -5329 -5224 0
5331 -5329 -4049 0
5331 -5224 -4049 0
-5334 5331 5226 4050 0
-5334 5331 -5226 -4050 0
-5334 -5331 5226 -4050 0
5334 5331 5226 -4050 0
-5334 -5331 -5226 4050 0
5334 5331 -5226 4050 0
5334 -5331 5226 4050 0
5334 -5331 -5226 -4050 0
-5333 5331 5226 0
-5333 5331 4050 0
-5333 5226 4050 0
5333 -5331 -5226 0
5333 -5331 -4050 0
5333 -5226 -4050 0
-5336 5333 5228 4051 0
-5336 5333 -5228 -4051 0
-5336 -5333 5228 -4051 0
5336 5333 5228 -4051 0
-5336 -5333 -5228 4051 0
5336 5333 -5228 4051 0
5336 -5333 5228 4051 0
5336 -5333 -5228 -4051 0
-5335 5333 5228 0
-5335 5333 4051 0
-5335 5228 4051 0
5335 -5333 -5228 0
5335 -5333 -4051 0
5335 -5228 -4051 0
-5338 5335 5230 4052 0
-5338 5335 -5230 -4052 0
-5338 -5335 5230 -4052 0
5338 5335 5230 -4052 0
-5338 -5335 -5230 4052 0
5338 5335 -5230 4052 0
5338 -5335 5230 4052 0
5338 -5335 -5230 -4052 0
-5337 5335 5230 0
-5337 5335 4052 0
-5337 5230 4052 0
5337 -5335 -5230 0
5337 -5335 -4052 0
5337 -5230 -4052 0
-5340 5337 5232 4053 0
-5340 5337 -5232 -4053 0
-5340 -5337 5232 -4053 0
5340 5337 5232 -4053 0
-5340 -5337 -5232 4053 0
5340 5337 -5232 4053 0
5340 -5337 5232 4053 0
5340 -5337 -5232 -4053 0
-5339 5337 5232 0
-5339 5337 4053 0
-5339 5232 4053 0
5339 -5337 -5232 0
5339 -5337 -4053 0
5339 -5232 -4053 0
-5342 5339 5234 4054 0
-5342 5339 -5234 -4054 0
-5342 -5339 5234 -4054 0
5342 5339 5234 -4054 0
-5342 -5339 -5234 4054 0
5342 5339 -5234 4054 0
5342 -5339 5234 4054 0
5342 -5339 -5234 -4054 0
-5341 5339 5234 0
-5341 5339 4054 0
-5341 5234 4054 0
5341 -5339 -5234 0
5341 -5339 -4054 0
5341 -5234 -4054 0
-5344 5341 5236 4055 0
-5344 5341 -5236 -4055 0
-5344 -5341 5236 -4055 0
5344 5341 5236 -4055 0
-5344 -5341 -5236 4055 0
5344 5341 -5236 4055 0
5344 -5341 5236 4055 0
5344 -5341 -5236 -4055 0
-5343 5341 5236 0
-5343 5341 4055 0
-5343 5236 4055 0
5343 -5341 -5236 0
5343 -5341 -4055 0
5343 -5236 -4055 0
-5346 5343 5238 4056 0
-5346 5343 -5238 -4056 0
-5346 -5343 5238 -4056 0
5346 5343 5238 -4056 0
-5346 -5343 -5238 4056 0
5346 5343 -5238 4056 0
5346 -5343 5238 4056 0
5346 -5343 -5238 -4056 0
-5345 5343 5238 0
-5345 5343 4056 0
-5345 5238 4056 0
5345 -5343 -5238 0
5345 -5343 -4056 0
5345 -5238 -4056 0
-5348 5345 5240 4057 0
-5348 5345 -5240 -4057 0
-5348 -5345 5240 -4057 0
5348 5345 5240 -4057 0
-5348 -5345 -5240 4057 0
5348 5345 -5240 4057 0
5348 -5345 5240 4057 0
5348 -5345 -5240 -4057 0
-5347 5345 5240 0
-5347 5345 4057 0
-5347 5240 4057 0
5347 -5345 -5240 0
5347 -5345 -4057 0
5347 -5240 -4057 0
-5350 5347 5242 4058 0
-5350 5347 -5242 -4058 0
-5350 -5347 5242 -4058 0
5350 5347 5242 -4058 0
-5350 -5347 -5242 4058 0
5350 5347 -5242 4058 0
5350 -5347 5242 4058 0
5350 -5347 -5242 -4058 0
-5349 5347 5242 0
-5349 5347 4058 0
-5349 5242 4058 0
5349 -5347 -5242 0
5349 -5347 -4058 0
5349 -5242 -4058 0
-5352 5349 5244 4059 0
-5352 5349 -5244 -4059 0
-5352 -5349 5244 -4059 0
5352 5349 5244 -4059 0
-5352 -5349 -5244 4059 0
5352 5349 -5244 4059 0
5352 -5349 5244 4059 0
5352 -5349 -5244 -4059 0
-5351 5349 5244 0
-5351 5349 4059 0
-5351 5244 4059 0
5351 -5349 -5244 0
5351 -5349 -4059 0
5351 -5244 -4059 0
-5354 5351 5243 4060 0
-5354 5351 -5243 -4060 0
-5354 -5351 5243 -4060 0
5354 5351 5243 -4060 0
-5354 -5351 -5243 4060 0
5354 5351 -5243 4060 0
5354 -5351 5243 4060 0
5354 -5351 -5243 -4060 0
-5353 5351 5243 0
-5353 5351 4060 0
-5353 5243 4060 0
5353 -5351 -5243 0
5353 -5351 -4060 0
5353 -5243 -4060 0
-5356 5353 4061 0
5356 -5353 4061 0
5356 5353 -4061 0
-5356 -5353 -4061 0
-5355 5353 0
-5355 4061 0
5355 -5353 -4061 0
-5358 5355 4062 0
5358 -5355 4062 0
5358 5355 -4062 0
-5358 -5355 -4062 0
-5357 5355 0
-5357 4062 0
5357 -5355 -4062 0
-5360 5357 4063 0
5360 -5357 4063 0
5360 5357 -4063 0
-5360 -5357 -4063 0
-5359 5357 0
-5359 4063 0
5359 -5357 -4063 0
-5362 5359 4064 0
5362 -5359 4064 0
5362 5359 -4064 0
-5362 -5359 -4064 0
-5361 5359 0
-5361 4064 0
5361 -5359 -4064 0
-5246 5364 0
5246 -5364 0
-5363 0
5248 5363 -5366 0
-5248 -5363 -5366 0
-5248 5363 5366 0
5248 -5363 5366 0
-5365 5363 0
-5365 5248 0
5365 -5363 -5248 0
5250 5365 -5368 0
-5250 -5365 -5368 0
-5250 5365 5368 0
5250 -5365 5368 0
-5367 5365 0
-5367 5250 0
5367 -5365 -5250 0
5252 5367 -5370 0
-5252 -5367 -5370 0
-5252 5367 5370 0
5252 -5367 5370 0
-5369 5367 0
-5369 5252 0
5369 -5367 -5252 0
5254 5369 -5372 0
-5254 -5369 -5372 0
-5254 5369 5372 0
5254 -5369 5372 0
-5371 5369 0
-5371 5254 0
5371 -5369 -5254 0
5256 5371 -5374 0
-5256 -5371 -5374 0
-5256 5371 5374 0
5256 -5371 5374 0
-5373 5371 0
-5373 5256 0
5373 -5371 -5256 0
5258 5373 -5376 0
-5258 -5373 -5376 0
-5258 5373 5376 0
5258 -5373 5376 0
-5375 5373 0
-5375 5258 0
5375 -5373 -5258 0
5260 5375 -5378 0
-5260 -5375 -5378 0
-5260 5375 5378 0
5260 -5375 5378 0
-5377 5375 0
-5377 5260 0
5377 -5375 -5260 0
5262 5377 -5380 0
-5262 -5377 -5380 0
-5262 5377 5380 0
5262 -5377 5380 0
-5379 5377 0
-5379 5262 0
5379 -5377 -5262 0
5264 5379 -5382 0
-5264 -5379 -5382 0
-5264 5379 5382 0
5264 -5379 5382 0
-5381 5379 0
-5381 5264 0
5381 -5379 -5264 0
5266 5381 -5384 0
-5266 -5381 -5384 0
-5266 5381 5384 0
5266 -5381 5384 0
-5383 5381 0
-5383 5266 0
5383 -5381 -5266 0
5268 5383 -5386 0
-5268 -5383 -5386 0
-5268 5383 5386 0
5268 -5383 5386 0
-5385 5383 0
-5385 5268 0
5385 -5383 -5268 0
5270 5385 -5388 0
-5270 -5385 -5388 0
-5270 5385 5388 0
5270 -5385 5388 0
-5387 5385 0
-5387 5270 0
5387 -5385 -5270 0
5272 5387 -5390 0
-5272 -5387 -5390 0
-5272 5387 5390 0
5272 -5387 5390 0
-5389 5387 0
-5389 5272 0
5389 -5387 -5272 0
5274 5389 -5392 0
-5274 -5389 -5392 0
-5274 5389 5392 0
5274 -5389 5392 0
-5391 5389 0
-5391 5274 0
5391 -5389 -5274 0
5276 5391 -5394 0
-5276 -5391 -5394 0
-5276 5391 5394 0
5276 -5391 5394 0
-5393 5391 0
-5393 5276 0
5393 -5391 -5276 0
5278 5393 -5396 0
-5278 -5393 -5396 0
-5278 5393 5396 0
5278 -5393 5396 0
-5395 5393 0
-5395 5278 0
5395 -5393 -5278 0
5280 5395 -5398 0
-5280 -5395 -5398 0
-5280 5395 5398 0
5280 -5395 5398 0
-5397 5395 0
-5397 5280 0
5397 -5395 -5280 0
5282 5397 -5400 0
-5282 -5397 -5400 0
-5282 5397 5400 0
5282 -5397 5400 0
-5399 5397 0
-5399 5282 0
5399 -5397 -5282 0
5284 5399 -5402 0
-5284 -5399 -5402 0
-5284 5399 5402 0
5284 -5399 5402 0
-5401 5399 0
-5401 5284 0
5401 -5399 -5284 0
5286 5401 -5404 0
-5286 -5401 -5404 0
-5286 5401 5404 0
5286 -5401 5404 0
-5403 5401 0
-5403 5286 0
5403 -5401 -5286 0
5288 5403 -5406 0
-5288 -5403 -5406 0
-5288 5403 5406 0
5288 -5403 5406 0
-5405 5403 0
-5405 5288 0
5405 -5403 -5288 0
5290 5405 -5408 0
-5290 -5405 -5408 0
-5290 5405 5408 0
5290 -5405 5408 0
-5407 5405 0
-5407 5290 0
5407 -5405 -5290 0
5292 5407 -5410 0
-5292 -5407 -5410 0
-5292 5407 5410 0
5292 -5407 5410 0
-5409 5407 0
-5409 5292 0
5409 -5407 -5292 0
5294 5409 -5412 0
-5294 -5409 -5412 0
-5294 5409 5412 0
5294 -5409 5412 0
-5411 5409 0
-5411 5294 0
5411 -5409 -5294 0
5296 5411 -5414 0
-5296 -5411 -5414 0
-5296 5411 5414 0
5296 -5411 5414 0
-5413 5411 0
-5413 5296 0
5413 -5411 -5296 0
5298 5413 -5416 0
-5298 -5413 -5416 0
-5298 5413 5416 0
5298 -5413 5416 0
-5415 5413 0
-5415 5298 0
5415 -5413 -5298 0
5300 5415 -5418 0
-5300 -5415 -5418 0
-5300 5415 5418 0
5300 -5415 5418 0
-5417 5415 0
-5417 5300 0
5417 -5415 -5300 0
5302 5417 -5420 0
-5302 -5417 -5420 0
-5302 5417 5420 0
5302 -5417 5420 0
-5419 5417 0
-5419 5302 0
5419 -5417 -5302 0
5304 5419 -5422 0
-5304 -5419 -5422 0
-5304 5419 5422 0
5304 -5419 5422 0
-5421 5419 0
-5421 5304 0
5421 -5419 -5304 0
-5424 5421 5306 4033 0
-5424 5421 -5306 -4033 0
-5424 -5421 5306 -4033 0
5424 5421 5306 -4033 0
-5424 -5421 -5306 4033 0
5424 5421 -5306 4033 0
5424 -5421 5306 4033 0
5424 -5421 -5306 -4033 0
-5423 5421 5306 0
-5423 5421 4033 0
-5423 5306 4033 0
5423 -5421 -5306 0
5423 -5421 -4033 0
5423 -5306 -4033 0
-5426 5423 5308 4034 0
-5426 5423 -5308 -4034 0
-5426 -5423 5308 -4034 0
5426 5423 5308 -4034 0
-5426 -5423 -5308 4034 0
5426 5423 -5308 4034 0
5426 -5423 5308 4034 0
5426 -5423 -5308 -4034 0
-5425 5423 5308 0
-5425 5423 4034 0
-5425 5308 4034 0
5425 -5423 -5308 0
5425 -5423 -4034 0
5425 -5308 -4034 0
-5428 5425 5310 4035 0
-5428 5425 -5310 -4035 0
-5428 -5425 5310 -4035 0
5428 5425 5310 -4035 0
-5428 -5425 -5310 4035 0
5428 5425 -5310 4035 0
5428 -5425 5310 4035 0
5428 -5425 -5310 -4035 0
-5427 5425 5310 0
-5427 5425 4035 0
-5427 5310 4035 0
5427 -5425 -5310 0
5427 -5425 -4035 0
5427 -5310 -4035 0
-5430 5427 5312 4036 0
-5430 5427 -5312 -4036 0
-5430 -5427 5312 -4036 0
5430 5427 5312 -4036 0
-5430 -5427 -5312 4036 0
5430 5427 -5312 4036 0
5430 -5427 5312 4036 0
5430 -5427 -5312 -4036 0
-5429 5427 5312 0
-5429 5427 4036 0
-5429 5312 4036 0
5429 -5427 -5312 0
5429 -5427 -4036 0
5429 -5312 -4036 0
-5432 5429 5314 4037 0
-5432 5429 -5314 -4037 0
-5432 -5429 5314 -4037 0
5432 5429 5314 -4037 0
-5432 -5429 -5314 4037 0
5432 5429 -5314 4037 0
5432 -5429 5314 4037 0
5432 -5429 -5314 -4037 0
-5431 5429 5314 0
-5431 5429 4037 0
-5431 5314 4037 0
5431 -5429 -5314 0
5431 -5429 -4037 0
5431 -5314 -4037 0
-5434 5431 5316 4038 0
-5434 5431 -5316 -4038 0
-5434 -5431 5316 -4038 0
5434 5431 5316 -4038 0
-5434 -5431 -5316 4038 0
5434 5431 -5316 4038 0
5434 -5431 5316 4038 0
5434 -5431 -5316 -4038 0
-5433 5431 5316 0
-5433 5431 4038 0
-5433 5316 4038 0
5433 -5431 -5316 0
5433 -5431 -4038 0
5433 -5316 -4038 0
-5436 5433 5318 4039 0
-5436 5433 -5318 -4039 0
-5436 -5433 5318 -4039 0
5436 5433 5318 -4039 0
-5436 -5433 -5318 4039 0
5436 5433 -5318 4039 0
5436 -5433 5318 4039 0
5436 -5433 -5318 -4039 0
-5435 5433 5318 0
-5435 5433 4039 0
-5435 5318 4039 0
5435 -5433 -5318 0
5435 -5433 -4039 0
5435 -5318 -4039 0
-5438 5435 5320 4040 0
-5438 5435 -5320 -4040 0
-5438 -5435 5320 -4040 0
5438 5435 5320 -4040 0
-5438 -5435 -5320 4040 0
5438 5435 -5320 4040 0
5438 -5435 5320 4040 0
5438 -5435 -5320 -4040 0
-5437 5435 5320 0
-5437 5435 4040 0
-5437 5320 4040 0
5437 -5435 -5320 0
5437 -5435 -4040 0
5437 -5320 -4040 0
-5440 5437 5322 4041 0
-5440 5437 -5322 -4041 0
-5440 -5437 5322 -4041 0
5440 5437 5322 -4041 0
-5440 -5437 -5322 4041 0
5440 5437 -5322 4041 0
5440 -5437 5322 4041 0
5440 -5437 -5322 -4041 0
-5439 5437 5322 0
-5439 5437 4041 0
-5439 5322 4041 0
5439 -5437 -5322 0
5439 -5437 -4041 0
5439 -5322 -4041 0
-5442 5439 5324 4042 0
-5442 5439 -5324 -4042 0
-5442 -5439 5324 -4042 0
5442 5439 5324 -4042 0
-5442 -5439 -5324 4042 0
5442 5439 -5324 4042 0
5442 -5439 5324 4042 0
5442 -5439 -5324 -4042 0
-5441 5439 5324 0
-5441 5439 4042 0
-5441 5324 4042 0
5441 -5439 -5324 0
5441 -5439 -4042 0
5441 -5324 -4042 0
-5444 5441 5326 4043 0
-5444 5441 -5326 -4043 0
-5444 -5441 5326 -4043 0
5444 5441 5326 -4043 0
-5444 -5441 -5326 4043 0
5444 5441 -5326 4043 0
5444 -5441 5326 4043 0
5444 -5441 -5326 -4043 0
-5443 5441 5326 0
-5443 5441 4043 0
-5443 5326 4043 0
5443 -5441 -5326 0
5443 -5441 -4043 0
5443 -5326 -4043 0
-5446 5443 5328 4044 0
-5446 5443 -5328 -4044 0
-5446 -5443 5328 -4044 0
5446 5443 5328 -4044 0
-5446 -5443 -5328 4044 0
5446 5443 -5328 4044 0
5446 -5443 5328 4044 0
5446 -5443 -5328 -4044 0
-5445 5443 5328 0
-5445 5443 4044 0
-5445 5328 4044 0
5445 -5443 -5328 0
5445 -5443 -4044 0
5445 -5328 -4044 0
-5448 5445 5330 4045 0
-5448 5445 -5330 -4045 0
-5448 -5445 5330 -4045 0
5448 5445 5330 -4045 0
-5448 -5445 -5330 4045 0
5448 5445 -5330 4045 0
5448 -5445 5330 4045 0
5448 -5445 -5330 -4045 0
-5447 5445 5330 0
-5447 5445 4045 0
-5447 5330 4045 0
5447 -5445 -5330 0
5447 -5445 -4045 0
5447 -5330 -4045 0
-5450 5447 5332 4046 0
-5450 5447 -5332 -4046 0
-5450 -5447 5332 -4046 0
5450 5447 5332 -4046 0
-5450 -5447 -5332 4046 0
5450 5447 -5332 4046 0
5450 -5447 5332 4046 0
5450 -5447 -5332 -4046 0
-5449 5447 5332 0
-5449 5447 4046 0
-5449 5332 4046 0
5449 -5447 -5332 0
5449 -5447 -4046 0
5449 -5332 -4046 0
-5452 5449 5334 4047 0
-5452 5449 -5334 -4047 0
-5452 -5449 5334 -4047 0
5452 5449 5334 -4047 0
-5452 -5449 -5334 4047 0
5452 5449 -5334 4047 0
5452 -5449 5334 4047 0
5452 -5449 -5334 -4047 0
-5451 5449 5334 0
-5451 5449 4047 0
-5451 5334 4047 0
5451 -5449 -5334 0
5451 -5449 -4047 0
5451 -5334 -4047 0
-5454 5451 5336 4048 0
-5454 5451 -5336 -4048 0
-5454 -5451 5336 -4048 0
5454 5451 5336 -4048 0
-5454 -5451 -5336 4048 0
5454 5451 -5336 4048 0
5454 -5451 5336 4048 0
5454 -5451 -5336 -4048 0
-5453 5451 5336 0
-5453 5451 4048 0
-5453 5336 4048 0
5453 -5451 -5336 0
5453 -5451 -4048 0
5453 -5336 -4048 0
-5456 5453 5338 4049 0
-5456 5453 -5338 -4049 0
-5456 -5453 5338 -4049 0
5456 5453 5338 -4049 0
-5456 -5453 -5338 4049 0
5456 5453 -5338 4049 0
5456 -5453 5338 4049 0
5456 -5453 -5338 -4049 0
-5455 5453 5338 0
-5455 5453 4049 0
-5455 5338 4049 0
5455 -5453 -5338 0
5455 -5453 -4049 0
5455 -5338 -4049 0
-5458 5455 5340 4050 0
-5458 5455 -5340 -4050 0
-5458 -5455 5340 -4050 0
5458 5455 5340 -4050 0
-5458 -5455 -5340 4050 0
5458 5455 -5340 4050 0
5458 -5455 5340 4050 0
5458 -5455 -5340 -4050 0
-5457 5455 5340 0
-5457 5455 4050 0
-5457 5340 4050 0
5457 -5455 -5340 0
5457 -5455 -4050 0
5457 -5340 -4050 0
-5460 5457 5342 4051 0
-5460 5457 -5342 -4051 0
-5460 -5457 5342 -4051 0
5460 5457 5342 -4051 0
-5460 -5457 -5342 4051 0
5460 5457 -5342 4051 0
5460 -5457 5342 4051 0
5460 -5457 -5342 -4051 0
-5459 5457 5342 0
-5459 5457 4051 0
-5459 5342 4051 0
5459 -5457 -5342 0
5459 -5457 -4051 0
5459 -5342 -4051 0
-5462 5459 5344 4052 0
-5462 5459 -5344 -4052 0
-5462 -5459 5344 -4052 0
5462 5459 5344 -4052 0
-5462 -5459 -5344 4052 0
5462 5459 -5344 4052 0
5462 -5459 5344 4052 0
5462 -5459 -5344 -4052 0
-5461 5459 5344 0
-5461 5459 4052 0
-5461 5344 4052 0
5461 -5459 -5344 0
5461 -5459 -4052 0
5461 -5344 -4052 0
-5464 5461 5346 4053 0
-5464 5461 -5346 -4053 0
-5464 -5461 5346 -4053 0
5464 5461 5346 -4053 0
-5464 -5461 -5346 4053 0
5464 5461 -5346 4053 0
5464 -5461 5346 4053 0
5464 -5461 -5346 -4053 0
-5463 5461 5346 0
-5463 5461 4053 0
-5463 5346 4053 0
5463 -5461 -5346 0
5463 -5461 -4053 0
5463 -5346 -4053 0
-5466 5463 5348 4054 0
-5466 5463 -5348 -4054 0
-5466 -5463 5348 -4054 0
5466 5463 5348 -4054 0
-5466 -5463 -5348 4054 0
5466 5463 -5348 4054 0
5466 -5463 5348 4054 0
5466 -5463 -5348 -4054 0
-5465 5463 5348 0
-5465 5463 4054 0
-5465 5348 4054 0
5465 -5463 -5348 0
5465 -5463 -4054 0
5465 -5348 -4054 0
-5468 5465 5350 4055 0
-5468 5465 -5350 -4055 0
-5468 -5465 5350 -4055 0
5468 5465 5350 -4055 0
-5468 -5465 -5350 4055 0
5468 5465 -5350 4055 0
5468 -5465 5350 4055 0
5468 -5465 -5350 -4055 0
-5467 5465 5350 0
-5467 5465 4055 0
-5467 5350 4055 0
5467 -5465 -5350 0
5467 -5465 -4055 0
5467 -5350 -4055 0
-5470 5467 5352 4056 0
-5470 5467 -5352 -4056 0
-5470 -5467 5352 -4056 0
5470 5467 5352 -4056 0
-5470 -5467 -5352 4056 0
5470 5467 -5352 4056 0
5470 -5467 5352 4056 0
5470 -5467 -5352 -4056 0
-5469 5467 5352 0
-5469 5467 4056 0
-5469 5352 4056 0
5469 -5467 -5352 0
5469 -5467 -4056 0
5469 -5352 -4056 0
-5472 5469 5354 4057 0
-5472 5469 -5354 -4057 0
-5472 -5469 5354 -4057 0
5472 5469 5354 -4057 0
-5472 -5469 -5354 4057 0
5472 5469 -5354 4057 0
5472 -5469 5354 4057 0
5472 -5469 -5354 -4057 0
-5471 5469 5354 0
-5471 5469 4057 0
-5471 5354 4057 0
5471 -5469 -5354 0
5471 -5469 -4057 0
5471 -5354 -4057 0
-5474 5471 5356 4058 0
-5474 5471 -5356 -4058 0
-5474 -5471 5356 -4058 0
5474 5471 5356 -4058 0
-5474 -5471 -5356 4058 0
5474 5471 -5356 4058 0
5474 -5471 5356 4058 0
5474 -5471 -5356 -4058 0
-5473 5471 5356 0
-5473 5471 4058 0
-5473 5356 4058 0
5473 -5471 -5356 0
5473 -5471 -4058 0
5473 -5356 -4058 0
-5476 5473 5358 4059 0
-5476 5473 -5358 -4059 0
-5476 -5473 5358 -4059 0
5476 5473 5358 -4059 0
-5476 -5473 -5358 4059 0
5476 5473 -5358 4059 0
5476 -5473 5358 4059 0
5476 -5473 -5358 -4059 0
-5475 5473 5358 0
-5475 5473 4059 0
-5475 5358 4059 0
5475 -5473 -5358 0
5475 -5473 -4059 0
5475 -5358 -4059 0
-5478 5475 5360 4060 0
-5478 5475 -5360 -4060 0
-5478 -5475 5360 -4060 0
5478 5475 5360 -4060 0
-5478 -5475 -5360 4060 0
5478 5475 -5360 4060 0
5478 -5475 5360 4060 0
5478 -5475 -5360 -4060 0
-5477 5475 5360 0
-5477 5475 4060 0
-5477 5360 4060 0
5477 -5475 -5360 0
5477 -5475 -4060 0
5477 -5360 -4060 0
-5480 5477 5362 4061 0
-5480 5477 -5362 -4061 0
-5480 -5477 5362 -4061 0
5480 5477 5362 -4061 0
-5480 -5477 -5362 4061 0
5480 5477 -5362 4061 0
5480 -5477 5362 4061 0
5480 -5477 -5362 -4061 0
-5479 5477 5362 0
-5479 5477 4061 0
-5479 5362 4061 0
5479 -5477 -5362 0
5479 -5477 -4061 0
5479 -5362 -4061 0
-5482 5479 5361 4062 0
-5482 5479 -5361 -4062 0
-5482 -5479 5361 -4062 0
5482 5479 5361 -4062 0
-5482 -5479 -5361 4062 0
5482 5479 -5361 4062 0
5482 -5479 5361 4062 0
5482 -5479 -5361 -4062 0
-5481 5479 5361 0
-5481 5479 4062 0
-5481 5361 4062 0
5481 -5479 -5361 0
5481 -5479 -4062 0
5481 -5361 -4062 0
-5484 5481 4063 0
5484 -5481 4063 0
5484 5481 -4063 0
-5484 -5481 -4063 0
-5483 5481 0
-5483 4063 0
5483 -5481 -4063 0
-5486 5483 4064 0
5486 -5483 4064 0
5486 5483 -4064 0
-5486 -5483 -4064 0
-5485 5483 0
-5485 4064 0
5485 -5483 -4064 0
-5364 5488 0
5364 -5488 0
-5487 0
5366 5487 -5490 0
-5366 -5487 -5490 0
-5366 5487 5490 0
5366 -5487 5490 0
-5489 5487 0
-5489 5366 0
5489 -5487 -5366 0
5368 5489 -5492 0
-5368 -5489 -5492 0
-5368 5489 5492 0
5368 -5489 5492 0
-5491 5489 0
-5491 5368 0
5491 -5489 -5368 0
5370 5491 -5494 0
-5370 -5491 -5494 0
-5370 5491 5494 0
5370 -5491 5494 0
-5493 5491 0
-5493 5370 0
5493 -5491 -5370 0
5372 5493 -5496 0
-5372 -5493 -5496 0
-5372 5493 5496 0
5372 -5493 5496 0
-5495 5493 0
-5495 5372 0
5495 -5493 -5372 0
5374 5495 -5498 0
-5374 -5495 -5498 0
-5374 5495 5498 0
5374 -5495 5498 0
-5497 5495 0
-5497 5374 0
5497 -5495 -5374 0
5376 5497 -5500 0
-5376 -5497 -5500 0
-5376 5497 5500 0
5376 -5497 5500 0
-5499 5497 0
-5499 5376 0
5499 -5497 -5376 0
5378 5499 -5502 0
-5378 -5499 -5502 0
-5378 5499 5502 0
5378 -5499 5502 0
-5501 5499 0
-5501 5378 0
5501 -5499 -5378 0
5380 5501 -5504 0
-5380 -5501 -5504 0
-5380 5501 5504 0
5380 -5501 5504 0
-5503 5501 0
-5503 5380 0
5503 -5501 -5380 0
5382 5503 -5506 0
-5382 -5503 -5506 0
-5382 5503 5506 0
5382 -5503 5506 0
-5505 5503 0
-5505 5382 0
5505 -5503 -5382 0
5384 5505 -5508 0
-5384 -5505 -5508 0
-5384 5505 5508 0
5384 -5505 5508 0
-5507 5505 0
-5507 5384 0
5507 -5505 -5384 0
5386 5507 -5510 0
-5386 -5507 -5510 0
-5386 5507 5510 0
5386 -5507 5510 0
-5509 5507 0
-5509 5386 0
5509 -5507 -5386 0
5388 5509 -5512 0
-5388 -5509 -5512 0
-5388 5509 5512 0
5388 -5509 5512 0
-5511 5509 0
-5511 5388 0
5511 -5509 -5388 0
5390 5511 -5514 0
-5390 -5511 -5514 0
-5390 5511 5514 0
5390 -5511 5514 0
-5513 5511 0
-5513 5390 0
5513 -5511 -5390 0
5392 5513 -5516 0
-5392 -5513 -5516 0
-5392 5513 5516 0
5392 -5513 5516 0
-5515 5513 0
-5515 5392 0
5515 -5513 -5392 0
5394 5515 -5518 0
-5394 -5515 -5518 0
-5394 5515 5518 0
5394 -5515 5518 0
-5517 5515 0
-5517 5394 0
5517 -5515 -5394 0
5396 5517 -5520 0
-5396 -5517 -5520 0
-5396 5517 5520 0
5396 -5517 5520 0
-5519 5517 0
-5519 5396 0
5519 -5517 -5396 0
5398 5519 -5522 0
-5398 -5519 -5522 0
-5398 5519 5522 0
5398 -5519 5522 0
-5521 5519 0
-5521 5398 0
5521 -5519 -5398 0
5400 5521 -5524 0
-5400 -5521 -5524 0
-5400 5521 5524 0
5400 -5521 5524 0
-5523 5521 0
-5523 5400 0
5523 -5521 -5400 0
5402 5523 -5526 0
-5402 -5523 -5526 0
-5402 5523 5526 0
5402 -5523 5526 0
-5525 5523 0
-5525 5402 0
5525 -5523 -5402 0
5404 5525 -5528 0
-5404 -5525 -5528 0
-5404 5525 5528 0
5404 -5525 5528 0
-5527 5525 0
-5527 5404 0
5527 -5525 -5404 0
5406 5527 -5530 0
-5406 -5527 -5530 0
-5406 5527 5530 0
5406 -5527 5530 0
-5529 5527 0
-5529 5406 0
5529 -5527 -5406 0
5408 5529 -5532 0
-5408 -5529 -5532 0
-5408 5529 5532 0
5408 -5529 5532 0
-5531 5529 0
-5531 5408 0
5531 -5529 -5408 0
5410 5531 -5534 0
-5410 -5531 -5534 0
-5410 5531 5534 0
5410 -5531 5534 0
-5533 5531 0
-5533 5410 0
5533 -5531 -5410 0
5412 5533 -5536 0
-5412 -5533 -5536 0
-5412 5533 5536 0
5412 -5533 5536 0
-5535 5533 0
-5535 5412 0
5535 -5533 -5412 0
5414 5535 -5538 0
-5414 -5535 -5538 0
-5414 5535 5538 0
5414 -5535 5538 0
-5537 5535 0
-5537 5414 0
5537 -5535 -5414 0
5416 5537 -5540 0
-5416 -5537 -5540 0
-5416 5537 5540 0
5416 -5537 5540 0
-5539 5537 0
-5539 5416 0
5539 -5537 -5416 0
5418 5539 -5542 0
-5418 -5539 -5542 0
-5418 5539 5542 0
5418 -5539 5542 0
-5541 5539 0
-5541 5418 0
5541 -5539 -5418 0
5420 5541 -5544 0
-5420 -5541 -5544 0
-5420 5541 5544 0
5420 -5541 5544 0
-5543 5541 0
-5543 5420 0
5543 -5541 -5420 0
5422 5543 -5546 0
-5422 -5543 -5546 0
-5422 5543 5546 0
5422 -5543 5546 0
-5545 5543 0
-5545 5422 0
5545 -5543 -5422 0
5424 5545 -5548 0
-5424 -5545 -5548 0
-5424 5545 5548 0
5424 -5545 5548 0
-5547 5545 0
-5547 5424 0
5547 -5545 -5424 0
-5550 5547 5426 4033 0
-5550 5547 -5426 -4033 0
-5550 -5547 5426 -4033 0
5550 5547 5426 -4033 0
-5550 -5547 -5426 4033 0
5550 5547 -5426 4033 0
5550 -5547 5426 4033 0
5550 -5547 -5426 -4033 0
-5549 5547 5426 0
-5549 5547 4033 0
-5549 5426 4033 0
5549 -5547 -5426 0
5549 -5547 -4033 0
5549 -5426 -4033 0
-5552 5549 5428 4034 0
-5552 5549 -5428 -4034 0
-5552 -5549 5428 -4034 0
5552 5549 5428 -4034 0
-5552 -5549 -5428 4034 0
5552 5549 -5428 4034 0
5552 -5549 5428 4034 0
5552 -5549 -5428 -4034 0
-5551 5549 5428 0
-5551 5549 4034 0
-5551 5428 4034 0
5551 -5549 -5428 0
5551 -5549 -4034 0
5551 -5428 -4034 0
-5554 5551 5430 4035 0
-5554 5551 -5430 -4035 0
-5554 -5551 5430 -4035 0
5554 5551 5430 -4035 0
-5554 -5551 -5430 4035 0
5554 5551 -5430 4035 0
5554 -5551 5430 4035 0
5554 -5551 -5430 -4035 0
-5553 5551 5430 0
-5553 5551 4035 0
-5553 5430 4035 0
5553 -5551 -5430 0
5553 -5551 -4035 0
5553 -5430 -4035 0
-5556 5553 5432 4036 0
-5556 5553 -5432 -4036 0
-5556 -5553 5432 -4036 0
5556 5553 5432 -4036 0
-5556 -5553 -5432 4036 0
5556 5553 -5432 4036 0
5556 -5553 5432 4036 0
5556 -5553 -5432 -4036 0
-5555 5553 5432 0
-5555 5553 4036 0
-5555 5432 4036 0
5555 -5553 -5432 0
5555 -5553 -4036 0
5555 -5432 -4036 0
-5558 5555 5434 4037 0
-5558 5555 -5434 -4037 0
-5558 -5555 5434 -4037 0
5558 5555 5434 -4037 0
-5558 -5555 -5434 4037 0
5558 5555 -5434 4037 0
5558 -5555 5434 4037 0
5558 -5555 -5434 -4037 0
-5557 5555 5434 0
-5557 5555 4037 0
-5557 5434 4037 0
5557 -5555 -5434 0
5557 -5555 -4037 0
5557 -5434 -4037 0
-5560 5557 5436 4038 0
-5560 5557 -5436 -4038 0
-5560 -5557 5436 -4038 0
5560 5557 5436 -4038 0
-5560 -5557 -5436 4038 0
5560 5557 -5436 4038 0
5560 -5557 5436 4038 0
5560 -5557 -5436 -4038 0
-5559 5557 5436 0
-5559 5557 4038 0
-5559 5436 4038 0
5559 -5557 -5436 0
5559 -5557 -4038 0
5559 -5436 -4038 0
-5562 5559 5438 4039 0
-5562 5559 -5438 -4039 0
-5562 -5559 5438 -4039 0
5562 5559 5438 -4039 0
-5562 -5559 -5438 4039 0
5562 5559 -5438 4039 0
5562 -5559 5438 4039 0
5562 -5559 -5438 -4039 0
-5561 5559 5438 0
-5561 5559 4039 0
-5561 5438 4039 0
5561 -5559 -5438 0
5561 -5559 -4039 0
5561 -5438 -4039 0
-5564 5561 5440 4040 0
-5564 5561 -5440 -4040 0
-5564 -5561 5440 -4040 0
5564 5561 5440 -4040 0
-5564 -5561 -5440 4040 0
5564 5561 -5440 4040 0
5564 -5561 5440 4040 0
5564 -5561 -5440 -4040 0
-5563 5561 5440 0
-5563 5561 4040 0
-5563 5440 4040 0
5563 -5561 -5440 0
5563 -5561 -4040 0
5563 -5440 -4040 0
-5566 5563 5442 4041 0
-5566 5563 -5442 -4041 0
-5566 -5563 5442 -4041 0
5566 5563 5442 -4041 0
-5566 -5563 -5442 4041 0
5566 5563 -5442 4041 0
5566 -5563 5442 4041 0
5566 -5563 -5442 -4041 0
-5565 5563 5442 0
-5565 5563 4041 0
-5565 5442 4041 0
5565 -5563 -5442 0
5565 -5563 -4041 0
5565 -5442 -4041 0
-5568 5565 5444 4042 0
-5568 5565 -5444 -4042 0
-5568 -5565 5444 -4042 0
5568 5565 5444 -4042 0
-5568 -5565 -5444 4042 0
5568 5565 -5444 4042 0
5568 -5565 5444 4042 0
5568 -5565 -5444 -4042 0
-5567 5565 5444 0
-5567 5565 4042 0
-5567 5444 4042 0
5567 -5565 -5444 0
5567 -5565 -4042 0
5567 -5444 -4042 0
-5570 5567 5446 4043 0
-5570 5567 -5446 -4043 0
-5570 -5567 5446 -4043 0
5570 5567 5446 -4043 0
-5570 -5567 -5446 4043 0
5570 5567 -5446 4043 0
5570 -5567 5446 4043 0
5570 -5567 -5446 -4043 0
-5569 5567 5446 0
-5569 5567 4043 0
-5569 5446 4043 0
5569 -5567 -5446 0
5569 -5567 -4043 0
5569 -5446 -4043 0
-5572 5569 5448 4044 0
-5572 5569 -5448 -4044 0
-5572 -5569 5448 -4044 0
5572 5569 5448 -4044 0
-5572 -5569 -5448 4044 0
5572 5569 -5448 4044 0
5572 -5569 5448 4044 0
5572 -5569 -5448 -4044 0
-5571 5569 5448 0
-5571 5569 4044 0
-5571 5448 4044 0
5571 -5569 -5448 0
5571 -5569 -4044 0
5571 -5448 -4044 0
-5574 5571 5450 4045 0
-5574 5571 -5450 -4045 0
-5574 -5571 5450 -4045 0
5574 5571 5450 -4045 0
-5574 -5571 -5450 4045 0
5574 5571 -5450 4045 0
5574 -5571 5450 4045 0
5574 -5571 -5450 -4045 0
-5573 5571 5450 0
-5573 5571 4045 0
-5573 5450 4045 0
5573 -5571 -5450 0
5573 -5571 -4045 0
5573 -5450 -4045 0
-5576 5573 5452 4046 0
-5576 5573 -5452 -4046 0
-5576 -5573 5452 -4046 0
5576 5573 5452 -4046 0
-5576 -5573 -5452 4046 0
5576 5573 -5452 4046 0
5576 -5573 5452 4046 0
5576 -5573 -5452 -4046 0
-5575 5573 5452 0
-5575 5573 4046 0
-5575 5452 4046 0
5575 -5573 -5452 0
5575 -5573 -4046 0
5575 -5452 -4046 0
-5578 5575 5454 4047 0
-5578 5575 -5454 -4047 0
-5578 -5575 5454 -4047 0
5578 5575 5454 -4047 0
-5578 -5575 -5454 4047 0
5578 5575 -5454 4047 0
5578 -5575 5454 4047 0
5578 -5575 -5454 -4047 0
-5577 5575 5454 0
-5577 5575 4047 0
-5577 5454 4047 0
5577 -5575 -5454 0
5577 -5575 -4047 0
5577 -5454 -4047 0
-5580 5577 5456 4048 0
-5580 5577 -5456 -4048 0
-5580 -5577 5456 -4048 0
5580 5577 5456 -4048 0
-5580 -5577 -5456 4048 0
5580 5577 -5456 4048 0
5580 -5577 5456 4048 0
5580 -5577 -5456 -4048 0
-5579 5577 5456 0
-5579 5577 4048 0
-5579 5456 4048 0
5579 -5577 -5456 0
5579 -5577 -4048 0
5579 -5456 -4048 0
-5582 5579 5458 4049 0
-5582 5579 -5458 -4049 0
-5582 -5579 5458 -4049 0
5582 5579 5458 -4049 0
-5582 -5579 -5458 4049 0
5582 5579 -5458 4049 0
5582 -5579 5458 4049 0
5582 -5579 -5458 -4049 0
-5581 5579 5458 0
-5581 5579 4049 0
-5581 5458 4049 0
5581 -5579 -5458 0
5581 -5579 -4049 0
5581 -5458 -4049 0
-5584 5581 5460 4050 0
-5584 5581 -5460 -4050 0
-5584 -5581 5460 -4050 0
5584 5581 5460 -4050 0
-5584 -5581 -5460 4050 0
5584 5581 -5460 4050 0
5584 -5581 5460 4050 0
5584 -5581 -5460 -4050 0
-5583 5581 5460 0
-5583 5581 4050 0
-5583 5460 4050 0
5583 -5581 -5460 0
5583 -5581 -4050 0
5583 -5460 -4050 0
-5586 5583 5462 4051 0
-5586 5583 -5462 -4051 0
-5586 -5583 5462 -4051 0
5586 5583 5462 -4051 0
-5586 -5583 -5462 4051 0
5586 5583 -5462 4051 0
5586 -5583 5462 4051 0
5586 -5583 -5462 -4051 0
-5585 5583 5462 0
-5585 5583 4051 0
-5585 5462 4051 0
5585 -5583 -5462 0
5585 -5583 -4051 0
5585 -5462 -4051 0
-5588 5585 5464 4052 0
-5588 5585 -5464 -4052 0
-5588 -5585 5464 -4052 0
5588 5585 5464 -4052 0
-5588 -5585 -5464 4052 0
5588 5585 -5464 4052 0
5588 -5585 5464 4052 0
5588 -5585 -5464 -4052 0
-5587 5585 5464 0
-5587 5585 4052 0
-5587 5464 4052 0
5587 -5585 -5464 0
5587 -5585 -4052 0
5587 -5464 -4052 0
-5590 5587 5466 4053 0
-5590 5587 -5466 -4053 0
-5590 -5587 5466 -4053 0
5590 5587 5466 -4053 0
-5590 -5587 -5466 4053 0
5590 5587 -5466 4053 0
5590 -5587 5466 4053 0
5590 -5587 -5466 -4053 0
-5589 5587 5466 0
-5589 5587 4053 0
-5589 5466 4053 0
5589 -5587 -5466 0
5589 -5587 -4053 0
5589 -5466 -4053 0
-5592 5589 5468 4054 0
-5592 5589 -5468 -4054 0
-5592 -5589 5468 -4054 0
5592 5589 5468 -4054 0
-5592 -5589 -5468 4054 0
5592 5589 -5468 4054 0
5592 -5589 5468 4054 0
5592 -5589 -5468 -4054 0
-5591 5589 5468 0
-5591 5589 4054 0
-5591 5468 4054 0
5591 -5589 -5468 0
5591 -5589 -4054 0
5591 -5468 -4054 0
-5594 5591 5470 4055 0
-5594 5591 -5470 -4055 0
-5594 -5591 5470 -4055 0
5594 5591 5470 -4055 0
-5594 -5591 -5470 4055 0
5594 5591 -5470 4055 0
5594 -5591 5470 4055 0
5594 -5591 -5470 -4055 0
-5593 5591 5470 0
-5593 5591 4055 0
-5593 5470 4055 0
5593 -5591 -5470 0
5593 -5591 -4055 0
5593 -5470 -4055 0
-5596 5593 5472 4056 0
-5596 5593 -5472 -4056 0
-5596 -5593 5472 -4056 0
5596 5593 5472 -4056 0
-5596 -5593 -5472 4056 0
5596 5593 -5472 4056 0
5596 -5593 5472 4056 0
5596 -5593 -5472 -4056 0
-5595 5593 5472 0
-5595 5593 4056 0
-5595 5472 4056 0
5595 -5593 -5472 0
5595 -5593 -4056 0
5595 -5472 -4056 0
-5598 5595 5474 4057 0
-5598 5595 -5474 -4057 0
-5598 -5595 5474 -4057 0
5598 5595 5474 -4057 0
-5598 -5595 -5474 4057 0
5598 5595 -5474 4057 0
5598 -5595 5474 4057 0
5598 -5595 -5474 -4057 0
-5597 5595 5474 0
-5597 5595 4057 0
-5597 5474 4057 0
5597 -5595 -5474 0
5597 -5595 -4057 0
5597 -5474 -4057 0
-5600 5597 5476 4058 0
-5600 5597 -5476 -4058 0
-5600 -5597 5476 -4058 0
5600 5597 5476 -4058 0
-5600 -5597 -5476 4058 0
5600 5597 -5476 4058 0
5600 -5597 5476 4058 0
5600 -5597 -5476 -4058 0
-5599 5597 5476 0
-5599 5597 4058 0
-5599 5476 4058 0
5599 -5597 -5476 0
5599 -5597 -4058 0
5599 -5476 -4058 0
-5602 5599 5478 4059 0
-5602 5599 -5478 -4059 0
-5602 -5599 5478 -4059 0
5602 5599 5478 -4059 0
-5602 -5599 -5478 4059 0
5602 5599 -5478 4059 0
5602 -5599 5478 4059 0
5602 -5599 -5478 -4059 0
-5601 5599 5478 0
-5601 5599 4059 0
-5601 5478 4059 0
5601 -5599 -5478 0
5601 -5599 -4059 0
5601 -5478 -4059 0
-5604 5601 5480 4060 0
-5604 5601 -5480 -4060 0
-5604 -5601 5480 -4060 0
5604 5601 5480 -4060 0
-5604 -5601 -5480 4060 0
5604 5601 -5480 4060 0
5604 -5601 5480 4060 0
5604 -5601 -5480 -4060 0
-5603 5601 5480 0
-5603 5601 4060 0
-5603 5480 4060 0
5603 -5601 -5480 0
5603 -5601 -4060 0
5603 -5480 -4060 0
-5606 5603 5482 4061 0
-5606 5603 -5482 -4061 0
-5606 -5603 5482 -4061 0
5606 5603 5482 -4061 0
-5606 -5603 -5482 4061 0
5606 5603 -5482 4061 0
5606 -5603 5482 4061 0
5606 -5603 -5482 -4061 0
-5605 5603 5482 0
-5605 5603 4061 0
-5605 5482 4061 0
5605 -5603 -5482 0
5605 -5603 -4061 0
5605 -5482 -4061 0
-5608 5605 5484 4062 0
-5608 5605 -5484 -4062 0
-5608 -5605 5484 -4062 0
5608 5605 5484 -4062 0
-5608 -5605 -5484 4062 0
5608 5605 -5484 4062 0
5608 -5605 5484 4062 0
5608 -5605 -5484 -4062 0
-5607 5605 5484 0
-5607 5605 4062 0
-5607 5484 4062 0
5607 -5605 -5484 0
5607 -5605 -4062 0
5607 -5484 -4062 0
-5610 5607 5486 4063 0
-5610 5607 -5486 -4063 0
-5610 -5607 5486 -4063 0
5610 5607 5486 -4063 0
-5610 -5607 -5486 4063 0
5610 5607 -5486 4063 0
5610 -5607 5486 4063 0
5610 -5607 -5486 -4063 0
-5609 5607 5486 0
-5609 5607 4063 0
-5609 5486 4063 0
5609 -5607 -5486 0
5609 -5607 -4063 0
5609 -5486 -4063 0
-5612 5609 5485 4064 0
-5612 5609 -5485 -4064 0
-5612 -5609 5485 -4064 0
5612 5609 5485 -4064 0
-5612 -5609 -5485 4064 0
5612 5609 -5485 4064 0
5612 -5609 5485 4064 0
5612 -5609 -5485 -4064 0
-5611 5609 5485 0
-5611 5609 4064 0
-5611 5485 4064 0
5611 -5609 -5485 0
5611 -5609 -4064 0
5611 -5485 -4064 0
-5614 -5488 0
5614 5488 0
-5613 5488 0
5613 -5488 0
5616 5613 5490 0
-5616 -5613 5490 0
-5616 5613 -5490 0
5616 -5613 -5490 0
-5615 5613 5490 0
5615 -5613 -5490 0
5615 -5613 0
5615 -5490 0
5492 5615 -5618 0
-5492 -5615 -5618 0
-5492 5615 5618 0
5492 -5615 5618 0
-5617 5615 0
-5617 5492 0
5617 -5615 -5492 0
5494 5617 -5620 0
-5494 -5617 -5620 0
-5494 5617 5620 0
5494 -5617 5620 0
-5619 5617 0
-5619 5494 0
5619 -5617 -5494 0
5496 5619 -5622 0
-5496 -5619 -5622 0
-5496 5619 5622 0
5496 -5619 5622 0
-5621 5619 0
-5621 5496 0
5621 -5619 -5496 0
5624 5621 5498 0
-5624 -5621 5498 0
-5624 5621 -5498 0
5624 -5621 -5498 0
-5623 5621 5498 0
5623 -5621 -5498 0
5623 -5621 0
5623 -5498 0
5626 5623 5500 0
-5626 -5623 5500 0
-5626 5623 -5500 0
5626 -5623 -5500 0
-5625 5623 5500 0
5625 -5623 -5500 0
5625 -5623 0
5625 -5500 0
5502 5625 -5628 0
-5502 -5625 -5628 0
-5502 5625 5628 0
5502 -5625 5628 0
-5627 5625 0
-5627 5502 0
5627 -5625 -5502 0
5504 5627 -5630 0
-5504 -5627 -5630 0
-5504 5627 5630 0
5504 -5627 5630 0
-5629 5627 0
-5629 5504 0
5629 -5627 -5504 0
5632 5629 5506 0
-5632 -5629 5506 0
-5632 5629 -5506 0
5632 -5629 -5506 0
-5631 5629 5506 0
5631 -5629 -5506 0
5631 -5629 0
5631 -5506 0
5634 5631 5508 0
-5634 -5631 5508 0
-5634 5631 -5508 0
5634 -5631 -5508 0
-5633 5631 5508 0
5633 -5631 -5508 0
5633 -5631 0
5633 -5508 0
5510 5633 -5636 0
-5510 -5633 -5636 0
-5510 5633 5636 0
5510 -5633 5636 0
-5635 5633 0
-5635 5510 0
5635 -5633 -5510 0
5638 5635 5512 0
-5638 -5635 5512 0
-5638 5635 -5512 0
5638 -5635 -5512 0
-5637 5635 5512 0
5637 -5635 -5512 0
5637 -5635 0
5637 -5512 0
5640 5637 5514 0
-5640 -5637 5514 0
-5640 5637 -5514 0
5640 -5637 -5514 0
-5639 5637 5514 0
5639 -5637 -5514 0
5639 -5637 0
5639 -5514 0
5516 5639 -5642 0
-5516 -5639 -5642 0
-5516 5639 5642 0
5516 -5639 5642 0
-5641 5639 0
-5641 5516 0
5641 -5639 -5516 0
5518 5641 -5644 0
-5518 -5641 -5644 0
-5518 5641 5644 0
5518 -5641 5644 0
-5643 5641 0
-5643 5518 0
5643 -5641 -5518 0
5520 5643 -5646 0
-5520 -5643 -5646 0
-5520 5643 5646 0
5520 -5643 5646 0
-5645 5643 0
-5645 5520 0
5645 -5643 -5520 0
5648 5645 5522 0
-5648 -5645 5522 0
-5648 5645 -5522 0
5648 -5645 -5522 0
-5647 5645 5522 0
5647 -5645 -5522 0
5647 -5645 0
5647 -5522 0
5524 5647 -5650 0
-5524 -5647 -5650 0
-5524 5647 5650 0
5524 -5647 5650 0
-5649 5647 0
-5649 5524 0
5649 -5647 -5524 0
5526 5649 -5652 0
-5526 -5649 -5652 0
-5526 5649 5652 0
5526 -5649 5652 0
-5651 5649 0
-5651 5526 0
5651 -5649 -5526 0
5528 5651 -5654 0
-5528 -5651 -5654 0
-5528 5651 5654 0
5528 -5651 5654 0
-5653 5651 0
-5653 5528 0
5653 -5651 -5528 0
5656 5653 5530 0
-5656 -5653 5530 0
-5656 5653 -5530 0
5656 -5653 -5530 0
-5655 5653 5530 0
5655 -5653 -5530 0
5655 -5653 0
5655 -5530 0
5658 5655 5532 0
-5658 -5655 5532 0
-5658 5655 -5532 0
5658 -5655 -5532 0
-5657 5655 5532 0
5657 -5655 -5532 0
5657 -5655 0
5657 -5532 0
5534 5657 -5660 0
-5534 -5657 -5660 0
-5534 5657 5660 0
5534 -5657 5660 0
-5659 5657 0
-5659 5534 0
5659 -5657 -5534 0
5662 5659 5536 0
-5662 -5659 5536 0
-5662 5659 -5536 0
5662 -5659 -5536 0
-5661 5659 5536 0
5661 -5659 -5536 0
5661 -5659 0
5661 -5536 0
5664 5661 5538 0
-5664 -5661 5538 0
-5664 5661 -5538 0
5664 -5661 -5538 0
-5663 5661 5538 0
5663 -5661 -5538 0
5663 -5661 0
5663 -5538 0
5666 5663 5540 0
-5666 -5663 5540 0
-5666 5663 -5540 0
5666 -5663 -5540 0
-5665 5663 5540 0
5665 -5663 -5540 0
5665 -5663 0
5665 -5540 0
5542 5665 -5668 0
-5542 -5665 -5668 0
-5542 5665 5668 0
5542 -5665 5668 0
-5667 5665 0
-5667 5542 0
5667 -5665 -5542 0
5670 5667 5544 0
-5670 -5667 5544 0
-5670 5667 -5544 0
5670 -5667 -5544 0
-5669 5667 5544 0
5669 -5667 -5544 0
5669 -5667 0
5669 -5544 0
5546 5669 -5672 0
-5546 -5669 -5672 0
-5546 5669 5672 0
5546 -5669 5672 0
-5671 5669 0
-5671 5546 0
5671 -5669 -5546 0
5548 5671 -5674 0
-5548 -5671 -5674 0
-5548 5671 5674 0
5548 -5671 5674 0
-5673 5671 0
-5673 5548 0
5673 -5671 -5548 0
5550 5673 -5676 0
-5550 -5673 -5676 0
-5550 5673 5676 0
5550 -5673 5676 0
-5675 5673 0
-5675 5550 0
5675 -5673 -5550 0
5552 5675 -5678 0
-5552 -5675 -5678 0
-5552 5675 5678 0
5552 -5675 5678 0
-5677 5675 0
-5677 5552 0
5677 -5675 -5552 0
5554 5677 -5680 0
-5554 -5677 -5680 0
-5554 5677 5680 0
5554 -5677 5680 0
-5679 5677 0
-5679 5554 0
5679 -5677 -5554 0
5556 5679 -5682 0
-5556 -5679 -5682 0
-5556 5679 5682 0
5556 -5679 5682 0
-5681 5679 0
-5681 5556 0
5681 -5679 -5556 0
5558 5681 -5684 0
-5558 -5681 -5684 0
-5558 5681 5684 0
5558 -5681 5684 0
-5683 5681 0
-5683 5558 0
5683 -5681 -5558 0
5560 5683 -5686 0
-5560 -5683 -5686 0
-5560 5683 5686 0
5560 -5683 5686 0
-5685 5683 0
-5685 5560 0
5685 -5683 -5560 0
5562 5685 -5688 0
-5562 -5685 -5688 0
-5562 5685 5688 0
5562 -5685 5688 0
-5687 5685 0
-5687 5562 0
5687 -5685 -5562 0
5564 5687 -5690 0
-5564 -5687 -5690 0
-5564 5687 5690 0
5564 -5687 5690 0
-5689 5687 0
-5689 5564 0
5689 -5687 -5564 0
5566 5689 -5692 0
-5566 -5689 -5692 0
-5566 5689 5692 0
5566 -5689 5692 0
-5691 5689 0
-5691 5566 0
5691 -5689 -5566 0
5568 5691 -5694 0
-5568 -5691 -5694 0
-5568 5691 5694 0
5568 -5691 5694 0
-5693 5691 0
-5693 5568 0
5693 -5691 -5568 0
5570 5693 -5696 0
-5570 -5693 -5696 0
-5570 5693 5696 0
5570 -5693 5696 0
-5695 5693 0
-5695 5570 0
5695 -5693 -5570 0
5572 5695 -5698 0
-5572 -5695 -5698 0
-5572 5695 5698 0
5572 -5695 5698 0
-5697 5695 0
-5697 5572 0
5697 -5695 -5572 0
5574 5697 -5700 0
-5574 -5697 -5700 0
-5574 5697 5700 0
5574 -5697 5700 0
-5699 5697 0
-5699 5574 0
5699 -5697 -5574 0
5576 5699 -5702 0
-5576 -5699 -5702 0
-5576 5699 5702 0
5576 -5699 5702 0
-5701 5699 0
-5701 5576 0
5701 -5699 -5576 0
5578 5701 -5704 0
-5578 -5701 -5704 0
-5578 5701 5704 0
5578 -5701 5704 0
-5703 5701 0
-5703 5578 0
5703 -5701 -5578 0
5580 5703 -5706 0
-5580 -5703 -5706 0
-5580 5703 5706 0
5580 -5703 5706 0
-5705 5703 0
-5705 5580 0
5705 -5703 -5580 0
5582 5705 -5708 0
-5582 -5705 -5708 0
-5582 5705 5708 0
5582 -5705 5708 0
-5707 5705 0
-5707 5582 0
5707 -5705 -5582 0
5584 5707 -5710 0
-5584 -5707 -5710 0
-5584 5707 5710 0
5584 -5707 5710 0
-5709 5707 0
-5709 5584 0
5709 -5707 -5584 0
5586 5709 -5712 0
-5586 -5709 -5712 0
-5586 5709 5712 0
5586 -5709 5712 0
-5711 5709 0
-5711 5586 0
5711 -5709 -5586 0
5588 5711 -5714 0
-5588 -5711 -5714 0
-5588 5711 5714 0
5588 -5711 5714 0
-5713 5711 0
-5713 5588 0
5713 -5711 -5588 0
5590 5713 -5716 0
-5590 -5713 -5716 0
-5590 5713 5716 0
5590 -5713 5716 0
-5715 5713 0
-5715 5590 0
5715 -5713 -5590 0
5592 5715 -5718 0
-5592 -5715 -5718 0
-5592 5715 5718 0
5592 -5715 5718 0
-5717 5715 0
-5717 5592 0
5717 -5715 -5592 0
5594 5717 -5720 0
-5594 -5717 -5720 0
-5594 5717 5720 0
5594 -5717 5720 0
-5719 5717 0
-5719 5594 0
5719 -5717 -5594 0
5596 5719 -5722 0
-5596 -5719 -5722 0
-5596 5719 5722 0
5596 -5719 5722 0
-5721 5719 0
-5721 5596 0
5721 -5719 -5596 0
5598 5721 -5724 0
-5598 -5721 -5724 0
-5598 5721 5724 0
5598 -5721 5724 0
-5723 5721 0
-5723 5598 0
5723 -5721 -5598 0
5600 5723 -5726 0
-5600 -5723 -5726 0
-5600 5723 5726 0
5600 -5723 5726 0
-5725 5723 0
-5725 5600 0
5725 -5723 -5600 0
5602 5725 -5728 0
-5602 -5725 -5728 0
-5602 5725 5728 0
5602 -5725 5728 0
-5727 5725 0
-5727 5602 0
5727 -5725 -5602 0
5604 5727 -5730 0
-5604 -5727 -5730 0
-5604 5727 5730 0
5604 -5727 5730 0
-5729 5727 0
-5729 5604 0
5729 -5727 -5604 0
5606 5729 -5732 0
-5606 -5729 -5732 0
-5606 5729 5732 0
5606 -5729 5732 0
-5731 5729 0
-5731 5606 0
5731 -5729 -5606 0
5608 5731 -5734 0
-5608 -5731 -5734 0
-5608 5731 5734 0
5608 -5731 5734 0
-5733 5731 0
-5733 5608 0
5733 -5731 -5608 0
5610 5733 -5736 0
-5610 -5733 -5736 0
-5610 5733 5736 0
5610 -5733 5736 0
-5735 5733 0
-5735 5610 0
5735 -5733 -5610 0
5612 5735 -5738 0
-5612 -5735 -5738 0
-5612 5735 5738 0
5612 -5735 5738 0
-5737 5735 0
-5737 5612 0
5737 -5735 -5612 0
5611 5737 -5740 0
-5611 -5737 -5740 0
-5611 5737 5740 0
5611 -5737 5740 0
-5739 5737 0
-5739 5611 0
5739 -5737 -5611 0
-3908 5614 0
3908 -5614 0
-3910 5616 0
3910 -5616 0
-3912 5618 0
3912 -5618 0
-3914 5620 0
3914 -5620 0
-3916 5622 0
3916 -5622 0
-3918 5624 0
3918 -5624 0
-3920 5626 0
3920 -5626 0
-3922 5628 0
3922 -5628 0
-3924 5630 0
3924 -5630 0
-3926 5632 0
3926 -5632 0
-3928 5634 0
3928 -5634 0
-3930 5636 0
3930 -5636 0
-3932 5638 0
3932 -5638 0
-3934 5640 0
3934 -5640 0
-3936 5642 0
3936 -5642 0
-3938 5644 0
3938 -5644 0
-3940 5646 0
3940 -5646 0
-3942 5648 0
3942 -5648 0
-3944 5650 0
3944 -5650 0
-3946 5652 0
3946 -5652 0
-3948 5654 0
3948 -5654 0
-3950 5656 0
3950 -5656 0
-3952 5658 0
3952 -5658 0
-3954 5660 0
3954 -5660 0
-3956 5662 0
3956 -5662 0
-3958 5664 0
3958 -5664 0
-3960 5666 0
3960 -5666 0
-3962 5668 0
3962 -5668 0
-3964 5670 0
3964 -5670 0
-3966 5672 0
3966 -5672 0
-3968 5674 0
3968 -5674 0
-3970 5676 0
3970 -5676 0
-3972 5678 0
3972 -5678 0
-3974 5680 0
3974 -5680 0
-3976 5682 0
3976 -5682 0
-3978 5684 0
3978 -5684 0
-3980 5686 0
3980 -5686 0
-3982 5688 0
3982 -5688 0
-3984 5690 0
3984 -5690 0
-3986 5692 0
3986 -5692 0
-3988 5694 0
3988 -5694 0
-3990 5696 0
3990 -5696 0
-3992 5698 0
3992 -5698 0
-3994 5700 0
3994 -5700 0
-3996 5702 0
3996 -5702 0
-3998 5704 0
3998 -5704 0
-4000 5706 0
4000 -5706 0
-4002 5708 0
4002 -5708 0
-4004 5710 0
4004 -5710 0
-4006 5712 0
4006 -5712 0
-4008 5714 0
4008 -5714 0
-4010 5716 0
4010 -5716 0
-4012 5718 0
4012 -5718 0
-4014 5720 0
4014 -5720 0
-4016 5722 0
4016 -5722 0
-4018 5724 0
4018 -5724 0
-4020 5726 0
4020 -5726 0
-4022 5728 0
4022 -5728 0
-4024 5730 0
4024 -5730 0
-4026 5732 0
4026 -5732 0
-4028 5734 0
4028 -5734 0
-4030 5736 0
4030 -5736 0
-4032 5738 0
4032 -5738 0
-4031 5740 0
4031 -5740 0
-5739 0
