p cnf 11427 33452
-7206 -67 0
-7206 -68 0
-7206 -69 0
-7206 7008 0
-6297 -46 0
-6297 -47 0
-6297 -48 0
-6297 6099 0
-6779 -46 0
-6779 -47 0
-6779 -48 0
-6779 6691 0
-7662 55 0
-7662 -56 0
-7662 -57 0
-7662 7112 0
-948 -46 0
-948 -47 0
-948 -48 0
6800 -948 0
-1862 16 0
-1862 17 0
-1862 -18 0
7274 -1862 0
-6688 -34 0
-6688 -35 0
-6688 36 0
7612 -6688 0
-8599 -28 0
-8599 -29 0
-8599 -30 0
-8599 8445 0
-6004 -28 0
-6004 -29 0
-6004 -30 0
-6004 5850 0
-6983 -58 0
-6983 59 0
-6983 -60 0
-6983 5443 0
-9806 19 0
-9806 -20 0
-9806 -21 0
-9806 9410 0
-8608 -55 0
-8608 -56 0
-8608 -57 0
-8608 8454 0
-278 -16 0
-278 -17 0
-278 -18 0
5668 -278 0
-1299 43 0
-1299 -44 0
-1299 -45 0
7019 -1299 0
-2414 -22 0
-2414 23 0
-2414 -24 0
8288 -2414 0
-9657 -34 0
-9657 35 0
-9657 -36 0
-9657 8535 0
-9760 10 0
-9760 -11 0
-9760 -12 0
-9760 9298 0
-7653 28 0
-7653 -29 0
-7653 -30 0
-7653 7103 0
-9302 -19 0
-9302 20 0
-9302 -21 0
-9302 7850 0
-1669 31 0
-1669 32 0
-1669 -33 0
6883 -1669 0
-9813 40 0
-9813 -41 0
-9813 -42 0
-9813 9417 0
-1482 64 0
-1482 65 0
-1482 -66 0
6652 -1482 0
-864 58 0
-864 -59 0
-864 -60 0
6386 -864 0
-1860 76 0
-1860 77 0
-1860 -78 0
7272 -1860 0
-9077 10 0
-9077 11 0
-9077 -12 0
-9077 7757 0
-544 -22 0
-544 -23 0
-544 24 0
9542 -544 0
-2070 46 0
-2070 47 0
-2070 -48 0
7636 -2070 0
-8115 28 0
-8115 29 0
-8115 -30 0
-8115 5915 0
-8124 55 0
-8124 56 0
-8124 -57 0
-8124 5924 0
-89 -43 0
-89 -44 0
-89 45 0
8911 -89 0
-8750 16 0
-8750 17 0
-8750 -18 0
-8750 7122 0
-7455 -25 0
-7455 26 0
-7455 -27 0
-7455 6223 0
-7308 -49 0
-7308 50 0
-7308 -51 0
-7308 6010 0
-7618 49 0
-7618 -50 0
-7618 -51 0
-7618 7002 0
-5494 -16 0
-5494 -17 0
-5494 18 0
7980 -5494 0
-1729 13 0
-1729 -14 0
-1729 -15 0
7867 -1729 0
-1890 34 0
-1890 35 0
-1890 -36 0
7302 -1890 0
-7116 -64 0
-7116 65 0
-7116 -66 0
-7116 5642 0
-9698 -25 0
-9698 26 0
-9698 -27 0
-9698 8620 0
-7501 -31 0
-7501 32 0
-7501 -33 0
-7501 6291 0
-403 -61 0
-403 -62 0
-403 -63 0
5815 -403 0
-8081 58 0
-8081 59 0
-8081 -60 0
-8081 6695 0
-9018 28 0
-9018 29 0
-9018 -30 0
-9018 7610 0
-2162 -58 0
-2162 -59 0
-2162 -60 0
9004 -2162 0
-8378 -25 0
-8378 -26 0
-8378 -27 0
-8378 8224 0
-6561 -49 0
-6561 -50 0
-6561 51 0
7397 -6561 0
-132 -40 0
-132 -41 0
-132 42 0
8954 -132 0
-9811 34 0
-9811 -35 0
-9811 -36 0
-9811 9415 0
-6613 -10 0
-6613 -11 0
-6613 12 0
7537 -6613 0
-1280 -52 0
-1280 -53 0
-1280 -54 0
7352 -1280 0
-9652 -19 0
-9652 20 0
-9652 -21 0
-9652 8530 0
-5461 -52 0
-5461 -53 0
-5461 54 0
8761 -5461 0
-9038 25 0
-9038 26 0
-9038 -27 0
-9038 7674 0
-7166 -16 0
-7166 -17 0
-7166 -18 0
-7166 6968 0
-323 -19 0
-323 -20 0
-323 21 0
9189 -323 0
-1581 31 0
-1581 32 0
-1581 -33 0
6773 -1581 0
-2111 37 0
-2111 38 0
-2111 -39 0
7699 -2111 0
-825 -73 0
-825 -74 0
-825 75 0
9867 -825 0
-9659 -40 0
-9659 41 0
-9659 -42 0
-9659 8537 0
-6889 46 0
-6889 -47 0
-6889 -48 0
-6889 6515 0
-7239 -37 0
-7239 38 0
-7239 -39 0
-7239 5853 0
-2718 -76 0
-2718 -77 0
-2718 -78 0
9758 -2718 0
-8531 19 0
-8531 -20 0
-8531 -21 0
-8531 7981 0
-7035 -22 0
-7035 23 0
-7035 -24 0
-7035 5539 0
-8869 46 0
-8869 47 0
-8869 -48 0
-8869 7373 0
-5665 -61 0
-5665 -62 0
-5665 -63 0
-982 -16 0
-982 17 0
-982 -18 0
5734 -982 0
-6705 -22 0
-6705 -23 0
-6705 24 0
7673 -6705 0
-6759 -52 0
-6759 -53 0
-6759 54 0
7771 -6759 0
-9149 25 0
-9149 -26 0
-9149 -27 0
-9149 8687 0
-5531 -64 0
-5531 -65 0
-5531 66 0
8853 -5531 0
-1250 -28 0
-1250 29 0
-1250 -30 0
6244 -1250 0
-1896 52 0
-1896 53 0
-1896 -54 0
7308 -1896 0
-7621 58 0
-7621 -59 0
-7621 -60 0
-7621 7005 0
-7332 -55 0
-7332 -56 0
-7332 -57 0
-7332 7244 0
-7997 64 0
-7997 65 0
-7997 -66 0
-7997 5665 0
-5625 -10 0
-5625 -11 0
-5625 -12 0
-5625 5427 0
-6980 -49 0
-6980 50 0
-6980 -51 0
-6980 5440 0
-1646 28 0
-1646 29 0
-1646 -30 0
6860 -1646 0
-2017 19 0
-2017 20 0
-2017 -21 0
7517 -2017 0
-7903 52 0
-7903 53 0
-7903 -54 0
-7903 6473 0
-2115 49 0
-2115 50 0
-2115 -51 0
7703 -2115 0
-7576 61 0
-7576 -62 0
-7576 -63 0
-7576 6960 0
-8090 16 0
-8090 17 0
-8090 -18 0
-8090 5846 0
-7509 -55 0
-7509 56 0
-7509 -57 0
-7509 6299 0
-8573 13 0
-8573 -14 0
-8573 -15 0
-8573 8045 0
-6310 -25 0
-6310 -26 0
-6310 27 0
9500 -6310 0
-8769 10 0
-8769 11 0
-8769 -12 0
-8769 7163 0
-980 -76 0
-980 77 0
-980 -78 0
5732 -980 0
-137 -55 0
-137 -56 0
-137 57 0
8959 -137 0
-5742 -37 0
-5742 -38 0
-5742 39 0
8360 -5742 0
-7323 -28 0
-7323 -29 0
-7323 -30 0
-7323 7235 0
-7531 -58 0
-7531 -59 0
-7531 -60 0
-7531 7377 0
-7560 13 0
-7560 -14 0
-7560 -15 0
-7560 6944 0
-1508 -76 0
-1508 -77 0
-1508 -78 0
7800 -1508 0
-6406 -49 0
-6406 -50 0
-6406 51 0
9420 -6406 0
-8449 37 0
-8449 -38 0
-8449 -39 0
-8449 7833 0
-1810 58 0
-1810 -59 0
-1810 -60 0
8014 -1810 0
-431 13 0
-431 -14 0
-431 -15 0
5469 -431 0
-1994 16 0
-1994 17 0
-1994 -18 0
7472 -1994 0
-5751 -64 0
-5751 -65 0
-5751 66 0
8369 -5751 0
-6694 -52 0
-6694 -53 0
-6694 54 0
7618 -6694 0
-5584 -25 0
-5584 -26 0
-5584 -27 0
-5584 5386 0
-8666 28 0
-8666 29 0
-8666 -30 0
-8666 6972 0
-9298 -7 0
-9298 8 0
-9298 -9 0
-9298 7846 0
-1425 25 0
-1425 26 0
-1425 -27 0
6595 -1425 0
-2604 -64 0
-2604 -65 0
-2604 -66 0
9622 -2604 0
-7498 -22 0
-7498 23 0
-7498 -24 0
-7498 6288 0
-8959 52 0
-8959 53 0
-8959 -54 0
-8959 7551 0
-8472 37 0
-8472 -38 0
-8472 -39 0
-8472 7856 0
-7760 -16 0
-7760 -17 0
-7760 -18 0
-7760 7606 0
-5613 -43 0
-5613 -44 0
-5613 -45 0
-5613 5415 0
-9343 -16 0
-9343 17 0
-9343 -18 0
-9343 7957 0
-5522 -37 0
-5522 -38 0
-5522 39 0
8844 -5522 0
-6831 67 0
-6831 -68 0
-6831 -69 0
-6831 6369 0
-1274 -34 0
-1274 -35 0
-1274 -36 0
7346 -1274 0
-7839 52 0
-7839 53 0
-7839 -54 0
-7839 5441 0
-8607 -52 0
-8607 -53 0
-8607 -54 0
-8607 8453 0
-2641 43 0
-2641 -44 0
-2641 -45 0
9351 -2641 0
-6440 -19 0
-6440 -20 0
-6440 21 0
9454 -6440 0
-7271 -70 0
-7271 71 0
-7271 -72 0
-7271 5929 0
-1820 -22 0
-1820 -23 0
-1820 -24 0
8420 -1820 0
-7949 58 0
-7949 59 0
-7949 -60 0
-7949 6519 0
-8172 67 0
-8172 68 0
-8172 -69 0
-8172 6016 0
-8778 37 0
-8778 38 0
-8778 -39 0
-8778 7172 0
-7661 52 0
-7661 -53 0
-7661 -54 0
-7661 7111 0
-5733 -10 0
-5733 -11 0
-5733 12 0
8351 -5733 0
-6157 25 0
-6157 -26 0
-6157 -27 0
-6157 5563 0
-1811 61 0
-1811 -62 0
-1811 -63 0
8015 -1811 0
-6956 -46 0
-6956 47 0
-6956 -48 0
-6956 5416 0
-6193 70 0
-6193 -71 0
-6193 -72 0
-6193 5621 0
-6881 22 0
-6881 -23 0
-6881 -24 0
-6881 6507 0
-6369 -64 0
-6369 -65 0
-6369 66 0
7007 -6369 0
-8123 52 0
-8123 53 0
-8123 -54 0
-8123 5923 0
-2458 -22 0
-2458 23 0
-2458 -24 0
8376 -2458 0
-7958 16 0
-7958 17 0
-7958 -18 0
-7958 5626 0
-5845 -10 0
-5845 -11 0
-5845 12 0
6087 -5845 0
-6447 -40 0
-6447 -41 0
-6447 42 0
9461 -6447 0
-5378 -67 0
-5378 -68 0
-5378 69 0
8898 -5378 0
-6512 -34 0
-6512 -35 0
-6512 -36 0
-6512 6358 0
-2369 -19 0
-2369 -20 0
-2369 -21 0
9255 -2369 0
-7070 -58 0
-7070 59 0
-7070 -60 0
-7070 5574 0
-5462 -55 0
-5462 -56 0
-5462 57 0
8762 -5462 0
-6445 -34 0
-6445 -35 0
-6445 36 0
9459 -6445 0
-6994 -22 0
-6994 23 0
-6994 -24 0
-6771 -22 0
-6771 -23 0
-6771 -24 0
-6771 6683 0
-9599 -58 0
-9599 -59 0
-9599 -60 0
-9599 9511 0
-5395 -49 0
-5395 -50 0
-5395 51 0
8695 -5395 0
-5995 -70 0
-5995 -71 0
-5995 -72 0
-5995 5841 0
-5453 -28 0
-5453 -29 0
-5453 30 0
8753 -5453 0
-5513 -10 0
-5513 -11 0
-5513 12 0
8835 -5513 0
-382 -64 0
-382 -65 0
-382 66 0
9248 -382 0
-6961 -61 0
-6961 62 0
-6961 -63 0
-6961 5421 0
-8458 64 0
-8458 -65 0
-8458 -66 0
-8458 7842 0
-9255 -16 0
-9255 17 0
-9255 -18 0
-9255 8089 0
-1024 -76 0
-1024 77 0
-1024 -78 0
5776 -1024 0
-8787 64 0
-8787 65 0
-8787 -66 0
-8787 7181 0
-8290 25 0
-8290 26 0
-8290 -27 0
-8290 6200 0
-8547 67 0
-8547 -68 0
-8547 -69 0
-8547 7997 0
-1395 -67 0
-1395 -68 0
-1395 -69 0
7577 -1395 0
-354 -46 0
-354 -47 0
-354 48 0
9220 -354 0
-9086 37 0
-9086 38 0
-9086 -39 0
-9086 7766 0
-6238 67 0
-6238 -68 0
-6238 -69 0
-6238 5666 0
-1249 -25 0
-1249 26 0
-1249 -27 0
6243 -1249 0
-6760 -55 0
-6760 -56 0
-6760 57 0
7772 -6760 0
-9559 -70 0
-9559 71 0
-9559 -72 0
-9559 8371 0
-7158 -61 0
-7158 -62 0
-7158 -63 0
-7158 6960 0
-6751 -28 0
-6751 -29 0
-6751 30 0
7763 -6751 0
-6631 -64 0
-6631 -65 0
-6631 66 0
7555 -6631 0
-2299 -73 0
-2299 74 0
-2299 -75 0
8129 -2299 0
-6518 -52 0
-6518 -53 0
-6518 -54 0
-6518 6364 0
-2163 -61 0
-2163 -62 0
-2163 -63 0
9005 -2163 0
-5674 -31 0
-5674 -32 0
-5674 33 0
9018 -5674 0
-7895 28 0
-7895 29 0
-7895 -30 0
-7895 6465 0
-1794 76 0
-1794 -77 0
-1794 -78 0
7954 -1794 0
-1637 67 0
-1637 68 0
-1637 -69 0
6851 -1637 0
-1515 31 0
-1515 32 0
-1515 -33 0
6707 -1515 0
-402 -58 0
-402 -59 0
-402 -60 0
5814 -402 0
-5666 -64 0
-5666 -65 0
-5666 -66 0
-745 -31 0
-745 -32 0
-745 33 0
9787 -745 0
-7331 -52 0
-7331 -53 0
-7331 -54 0
-7331 7243 0
-5833 -43 0
-5833 -44 0
-5833 45 0
8473 -5833 0
-911 67 0
-911 -68 0
-911 -69 0
6455 -911 0
-7904 55 0
-7904 56 0
-7904 -57 0
-7904 6474 0
-2585 -73 0
-2585 74 0
-2585 -75 0
8613 -2585 0
-7121 -10 0
-7121 11 0
-7121 -12 0
-7121 5647 0
-1645 25 0
-1645 26 0
-1645 -27 0
6859 -1645 0
-1638 70 0
-1638 71 0
-1638 -72 0
6852 -1638 0
-6713 -46 0
-6713 -47 0
-6713 48 0
7681 -6713 0
-8233 49 0
-8233 50 0
-8233 -51 0
-8233 6077 0
-865 61 0
-865 -62 0
-865 -63 0
6387 -865 0
-912 70 0
-912 -71 0
-912 -72 0
6456 -912 0
-7043 -46 0
-7043 47 0
-7043 -48 0
-7043 5547 0
-8861 22 0
-8861 23 0
-8861 -24 0
-8861 7365 0
-6640 -25 0
-6640 -26 0
-6640 -27 0
-6640 6552 0
-9838 49 0
-9838 -50 0
-9838 -51 0
-9838 9464 0
-7248 -64 0
-7248 65 0
-7248 -66 0
-7248 5862 0
-7003 -49 0
-7003 50 0
-7003 -51 0
-7011 -16 0
-7011 17 0
-7011 -18 0
-7011 5493 0
-8951 28 0
-8951 29 0
-8951 -30 0
-8951 7543 0
-7107 -37 0
-7107 38 0
-7107 -39 0
-7107 5633 0
-5426 -4 0
-5426 -5 0
-5426 6 0
-7730 58 0
-7730 -59 0
-7730 -60 0
-7730 7202 0
-9297 -4 0
-9297 5 0
-9297 -6 0
-9297 7845 0
-6024 25 0
-6024 -26 0
-6024 -27 0
-6024 5386 0
-1396 -70 0
-1396 -71 0
-1396 -72 0
7578 -1396 0
-7644 67 0
-7644 -68 0
-7644 -69 0
-7644 7072 0
-187 -73 0
-187 -74 0
-187 -75 0
5379 -187 0
-6906 -31 0
-6906 -32 0
-6906 -33 0
-6906 6818 0
-9095 64 0
-9095 65 0
-9095 -66 0
-9095 7775 0
-9494 -73 0
-9494 74 0
-9494 -75 0
-9494 8240 0
-6622 -37 0
-6622 -38 0
-6622 39 0
7546 -6622 0
-9418 -40 0
-9418 41 0
-9418 -42 0
-9418 8054 0
-1426 28 0
-1426 29 0
-1426 -30 0
6596 -1426 0
-7853 25 0
-7853 26 0
-7853 -27 0
-6815 19 0
-6815 -20 0
-6815 -21 0
-6815 6353 0
-657 -31 0
-657 -32 0
-657 33 0
9677 -657 0
-7142 -13 0
-7142 -14 0
-7142 -15 0
-7142 6944 0
-8960 55 0
-8960 56 0
-8960 -57 0
-8960 7552 0
-6722 -73 0
-6722 -74 0
-6722 75 0
7690 -6722 0
-7988 37 0
-7988 38 0
-7988 -39 0
-7988 5656 0
-2437 -25 0
-2437 26 0
-2437 -27 0
8333 -2437 0
-7878 43 0
-7878 44 0
-7878 -45 0
-7878 6426 0
-8156 19 0
-8156 20 0
-8156 -21 0
-8156 6000 0
-2012 70 0
-2012 71 0
-2012 -72 0
7490 -2012 0
-5369 -40 0
-5369 -41 0
-5369 42 0
8889 -5369 0
-6456 -67 0
-6456 -68 0
-6456 69 0
9470 -6456 0
-398 -46 0
-398 -47 0
-398 -48 0
5810 -398 0
-7052 -73 0
-7052 74 0
-7052 -75 0
-7052 5556 0
-9863 -58 0
-9863 -59 0
-9863 -60 0
-9863 9775 0
-8163 40 0
-8163 41 0
-8163 -42 0
-8163 6007 0
-426 64 0
-426 -65 0
-426 -66 0
5464 -426 0
-5362 -19 0
-5362 -20 0
-5362 21 0
8882 -5362 0
-1015 -49 0
-1015 50 0
-1015 -51 0
5767 -1015 0
-1544 52 0
-1544 53 0
-1544 -54 0
6736 -1544 0
-9485 -46 0
-9485 47 0
-9485 -48 0
-9485 8231 0
-8624 -34 0
-8624 -35 0
-8624 -36 0
-8624 8470 0
-720 -22 0
-720 -23 0
-720 -24 0
6528 -720 0
-5549 -49 0
-5549 -50 0
-5549 51 0
8057 -5549 0
-1781 37 0
-1781 -38 0
-1781 -39 0
7941 -1781 0
-358 -58 0
-358 -59 0
-358 60 0
9224 -358 0
-999 -67 0
-999 68 0
-999 -69 0
5751 -999 0
-7077 -16 0
-7077 17 0
-7077 -18 0
-7077 5603 0
-7967 43 0
-7967 44 0
-7967 -45 0
-7967 5635 0
-8481 64 0
-8481 -65 0
-8481 -66 0
-8481 7865 0
-2219 31 0
-2219 -32 0
-2219 -33 0
8775 -2219 0
-953 -61 0
-953 -62 0
-953 -63 0
6805 -953 0
-8161 34 0
-8161 35 0
-8161 -36 0
-8161 6005 0
-6153 13 0
-6153 -14 0
-6153 -15 0
-6153 5559 0
-1000 -70 0
-1000 71 0
-1000 -72 0
5752 -1000 0
-1601 -25 0
-1601 -26 0
-1601 -27 0
8069 -1601 0
-246 -52 0
-246 -53 0
-246 54 0
9090 -246 0
-8727 16 0
-8727 17 0
-8727 -18 0
-8727 7099 0
-9311 -46 0
-9311 47 0
-9311 -48 0
-9311 7859 0
-701 -31 0
-701 -32 0
-701 33 0
9721 -701 0
-5367 -34 0
-5367 -35 0
-5367 36 0
8887 -5367 0
-1126 -52 0
-1126 53 0
-1126 -54 0
5944 -1126 0
-8496 49 0
-8496 -50 0
-8496 -51 0
-8496 7924 0
-2075 61 0
-2075 62 0
-2075 -63 0
7641 -2075 0
-2011 67 0
-2011 68 0
-2011 -69 0
7489 -2011 0
-2656 22 0
-2656 -23 0
-2656 -24 0
9388 -2656 0
-5849 -22 0
-5849 -23 0
-5849 24 0
6091 -5849 0
-918 22 0
-918 -23 0
-918 -24 0
6484 -918 0
-9605 -10 0
-9605 11 0
-9605 -12 0
-9605 8439 0
-6288 -19 0
-6288 -20 0
-6288 -21 0
-6288 6090 0
-6127 70 0
-6127 -71 0
-6127 -72 0
-6127 5511 0
-104 -22 0
-104 -23 0
-104 24 0
8926 -104 0
-6134 25 0
-6134 -26 0
-6134 -27 0
-6134 5540 0
-9185 70 0
-9185 -71 0
-9185 -72 0
-9185 8767 0
-1035 -43 0
-1035 44 0
-1035 -45 0
5787 -1035 0
-1538 34 0
-1538 35 0
-1538 -36 0
6730 -1538 0
-6736 -49 0
-6736 -50 0
-6736 51 0
7726 -6736 0
-529 -43 0
-529 -44 0
-529 45 0
9527 -529 0
-7566 31 0
-7566 -32 0
-7566 -33 0
-7566 6950 0
-6999 -37 0
-6999 38 0
-6999 -39 0
-9211 16 0
-9211 -17 0
-9211 -18 0
-9211 8837 0
-766 -28 0
-766 -29 0
-766 30 0
9808 -766 0
-7195 -34 0
-7195 -35 0
-7195 -36 0
-7195 6997 0
-9242 -43 0
-9242 -44 0
-9242 -45 0
-9242 9154 0
-8545 61 0
-8545 -62 0
-8545 -63 0
-8545 7995 0
-1879 67 0
-1879 68 0
-1879 -69 0
7291 -1879 0
-5766 -43 0
-5766 -44 0
-5766 45 0
8406 -5766 0
-6963 -67 0
-6963 68 0
-6963 -69 0
-6963 5423 0
-1071 -19 0
-1071 20 0
-1071 -21 0
5867 -1071 0
-7633 34 0
-7633 -35 0
-7633 -36 0
-7633 7061 0
-6284 -7 0
-6284 -8 0
-6284 -9 0
-6284 6086 0
-6593 -16 0
-6593 -17 0
-6593 18 0
7495 -6593 0
-295 -67 0
-295 -68 0
-295 -69 0
5685 -295 0
-7362 -10 0
-7362 11 0
-7362 -12 0
-7362 6064 0
-6195 7 0
-6195 -8 0
-6195 -9 0
-6195 5623 0
-1880 70 0
-1880 71 0
-1880 -72 0
7292 -1880 0
-7635 40 0
-7635 -41 0
-7635 -42 0
-7635 7063 0
-1120 -34 0
-1120 35 0
-1120 -36 0
5938 -1120 0
-1768 64 0
-1768 -65 0
-1768 -66 0
7906 -1768 0
-5824 -16 0
-5824 -17 0
-5824 18 0
8464 -5824 0
-296 -70 0
-296 -71 0
-296 -72 0
5686 -296 0
-2305 -25 0
-2305 26 0
-2305 -27 0
8135 -2305 0
-7711 70 0
-7711 -71 0
-7711 -72 0
-7711 7183 0
-5480 -43 0
-5480 -44 0
-5480 45 0
8802 -5480 0
-2680 28 0
-2680 -29 0
-2680 -30 0
9434 -2680 0
-8540 46 0
-8540 -47 0
-8540 -48 0
-8540 7990 0
-634 -28 0
-634 -29 0
-634 30 0
9654 -634 0
-1011 -37 0
-1011 38 0
-1011 -39 0
5763 -1011 0
-8630 -52 0
-8630 -53 0
-8630 -54 0
-8630 8476 0
-7628 19 0
-7628 -20 0
-7628 -21 0
-7628 7056 0
-7125 -22 0
-7125 23 0
-7125 -24 0
-7125 5651 0
-1785 49 0
-1785 -50 0
-1785 -51 0
7945 -1785 0
-240 -34 0
-240 -35 0
-240 36 0
9084 -240 0
-1620 16 0
-1620 17 0
-1620 -18 0
6834 -1620 0
-445 55 0
-445 -56 0
-445 -57 0
5483 -445 0
-7209 -16 0
-7209 17 0
-7209 -18 0
-7209 5823 0
-9822 67 0
-9822 -68 0
-9822 -69 0
-9822 9426 0
-7175 -43 0
-7175 -44 0
-7175 -45 0
-7175 6977 0
-894 16 0
-894 -17 0
-894 -18 0
6438 -894 0
-1738 40 0
-1738 -41 0
-1738 -42 0
7876 -1738 0
-7064 -40 0
-7064 41 0
-7064 -42 0
-7064 5568 0
-2438 -28 0
-2438 29 0
-2438 -30 0
8334 -2438 0
-605 -73 0
-605 -74 0
-605 75 0
9603 -605 0
-8943 70 0
-8943 71 0
-8943 -72 0
-8943 7513 0
-2709 -49 0
-2709 -50 0
-2709 -51 0
9749 -2709 0
-1159 -19 0
-1159 -20 0
-1159 -21 0
7209 -1159 0
-1378 -16 0
-1378 -17 0
-1378 -18 0
7560 -1378 0
-967 -37 0
-967 38 0
-967 -39 0
5719 -967 0
-302 -22 0
-302 -23 0
-302 24 0
9168 -302 0
-6227 34 0
-6227 -35 0
-6227 -36 0
-6227 5655 0
-6829 61 0
-6829 -62 0
-6829 -63 0
-6829 6367 0
-1973 19 0
-1973 20 0
-1973 -21 0
7429 -1973 0
-8195 -70 0
-8195 -71 0
-8195 -72 0
-8195 8107 0
-2509 -43 0
-2509 44 0
-2509 -45 0
8493 -2509 0
-7514 -70 0
-7514 71 0
-7514 -72 0
-7514 6304 0
-8878 73 0
-8878 74 0
-8878 -75 0
-8878 7382 0
-9668 -67 0
-9668 68 0
-9668 -69 0
-9668 8546 0
-1602 -28 0
-1602 -29 0
-1602 -30 0
8070 -1602 0
-9496 -10 0
-9496 11 0
-9496 -12 0
-9496 8242 0
-5503 -43 0
-5503 -44 0
-5503 45 0
7989 -5503 0
-5418 -49 0
-5418 -50 0
-5418 51 0
7860 -5418 0
-8759 43 0
-8759 44 0
-8759 -45 0
-8759 7131 0
-7443 -58 0
-7443 59 0
-7443 -60 0
-7443 6211 0
-573 -43 0
-573 -44 0
-573 45 0
9571 -573 0
-1495 -37 0
-1495 -38 0
-1495 -39 0
7787 -1495 0
-6094 28 0
-6094 -29 0
-6094 -30 0
-5722 -43 0
-5722 -44 0
-5722 45 0
8318 -5722 0
-6824 46 0
-6824 -47 0
-6824 -48 0
-6824 6362 0
-1806 46 0
-1806 -47 0
-1806 -48 0
8010 -1806 0
-7451 -13 0
-7451 14 0
-7451 -15 0
-7451 6219 0
-9477 -22 0
-9477 23 0
-9477 -24 0
-9477 8223 0
-2329 -31 0
-2329 32 0
-2329 -33 0
8159 -2329 0
-7350 -43 0
-7350 44 0
-7350 -45 0
-7350 6052 0
-1851 49 0
-1851 50 0
-1851 -51 0
7263 -1851 0
-123 -13 0
-123 -14 0
-123 15 0
8945 -123 0
-6360 -37 0
-6360 -38 0
-6360 39 0
6998 -6360 0
-6283 -4 0
-6283 -5 0
-6283 -6 0
-6283 6085 0
-5684 -61 0
-5684 -62 0
-5684 63 0
9028 -5684 0
-8525 70 0
-8525 -71 0
-8525 -72 0
-8525 7975 0
-2074 58 0
-2074 59 0
-2074 -60 0
7640 -2074 0
-860 46 0
-860 -47 0
-860 -48 0
6382 -860 0
-7769 -43 0
-7769 -44 0
-7769 -45 0
-7769 7615 0
-5604 -16 0
-5604 -17 0
-5604 -18 0
-5604 5406 0
-1499 -49 0
-1499 -50 0
-1499 -51 0
7791 -1499 0
-7148 -31 0
-7148 -32 0
-7148 -33 0
-7148 6950 0
-2201 43 0
-2201 -44 0
-2201 -45 0
8735 -2201 0
-1419 73 0
-1419 74 0
-1419 -75 0
6589 -1419 0
-459 31 0
-459 -32 0
-459 -33 0
5519 -459 0
-9424 -58 0
-9424 59 0
-9424 -60 0
-9424 8060 0
-9623 -64 0
-9623 65 0
-9623 -66 0
-9623 8457 0
-6947 -19 0
-6947 20 0
-6947 -21 0
-6947 5407 0
-6898 73 0
-6898 -74 0
-6898 -75 0
-6898 6524 0
-6900 -13 0
-6900 -14 0
-6900 -15 0
-6900 6812 0
-765 -25 0
-765 -26 0
-765 27 0
9807 -765 0
-7835 40 0
-7835 41 0
-7835 -42 0
-7835 5437 0
-1847 37 0
-1847 38 0
-1847 -39 0
7259 -1847 0
-7724 40 0
-7724 -41 0
-7724 -42 0
-7724 7196 0
-1343 43 0
-1343 -44 0
-1343 -45 0
7085 -1343 0
-952 -58 0
-952 -59 0
-952 -60 0
6804 -952 0
-8639 16 0
-8639 17 0
-8639 -18 0
-8639 7231 0
-1375 73 0
-1375 -74 0
-1375 -75 0
7161 -1375 0
-5790 -49 0
-5790 -50 0
-5790 -51 0
-5790 5702 0
-6788 -73 0
-6788 -74 0
-6788 -75 0
-6788 6700 0
-8980 -49 0
-8980 -50 0
-8980 -51 0
-8980 8892 0
-2306 -28 0
-2306 29 0
-2306 -30 0
8136 -2306 0
-359 -61 0
-359 -62 0
-359 63 0
9225 -359 0
-9145 13 0
-9145 -14 0
-9145 -15 0
-9145 8683 0
-9614 -37 0
-9614 38 0
-9614 -39 0
-9614 8448 0
-7669 7 0
-7669 -8 0
-7669 -9 0
-7669 7119 0
-6916 -61 0
-6916 -62 0
-6916 -63 0
-6916 6828 0
-8099 43 0
-8099 44 0
-8099 -45 0
-8099 5855 0
-1688 22 0
-1688 23 0
-1688 -24 0
6902 -1688 0
-440 40 0
-440 -41 0
-440 -42 0
5478 -440 0
-2705 -37 0
-2705 -38 0
-2705 -39 0
9745 -2705 0
-6857 16 0
-6857 -17 0
-6857 -18 0
-6857 6461 0
-5629 -22 0
-5629 -23 0
-5629 -24 0
-5629 5431 0
-9275 -7 0
-9275 8 0
-9275 -9 0
-9275 7823 0
-1204 -22 0
-1204 23 0
-1204 -24 0
6132 -1204 0
-971 -49 0
-971 50 0
-971 -51 0
5723 -971 0
-1929 -19 0
-1929 -20 0
-1929 -21 0
8639 -1929 0
-5421 -58 0
-5421 -59 0
-5421 60 0
7863 -5421 0
-2158 -46 0
-2158 -47 0
-2158 -48 0
9000 -2158 0
-8210 49 0
-8210 50 0
-8210 -51 0
-8210 6824 0
-2124 76 0
-2124 77 0
-2124 -78 0
7712 -2124 0
-2679 25 0
-2679 -26 0
-2679 -27 0
9433 -2679 0
-1743 55 0
-1743 -56 0
-1743 -57 0
7881 -1743 0
-633 -25 0
-633 -26 0
-633 27 0
9653 -633 0
-6662 -25 0
-6662 -26 0
-6662 27 0
9764 -6662 0
-8577 25 0
-8577 -26 0
-8577 -27 0
-8577 8049 0
-5668 -13 0
-5668 -14 0
-5668 15 0
9012 -5668 0
-7366 -22 0
-7366 23 0
-7366 -24 0
-7366 6068 0
-7742 -31 0
-7742 -32 0
-7742 -33 0
-7742 7588 0
-1287 -73 0
-1287 -74 0
-1287 -75 0
7359 -1287 0
-6629 -58 0
-6629 -59 0
-6629 60 0
7553 -6629 0
-684 -46 0
-684 -47 0
-684 48 0
9704 -684 0
-9645 -61 0
-9645 62 0
-9645 -63 0
-9645 8479 0
-2091 43 0
-2091 44 0
-2091 -45 0
7657 -2091 0
-6214 64 0
-6214 -65 0
-6214 -66 0
-6214 5642 0
-7585 19 0
-7585 -20 0
-7585 -21 0
-7585 6969 0
-981 -13 0
-981 14 0
-981 -15 0
5733 -981 0
-2360 -58 0
-2360 59 0
-2360 -60 0
8190 -2360 0
-5859 -52 0
-5859 -53 0
-5859 54 0
6101 -5859 0
-8065 10 0
-8065 11 0
-8065 -12 0
-8065 6679 0
-5506 -52 0
-5506 -53 0
-5506 54 0
7992 -5506 0
-747 -37 0
-747 -38 0
-747 39 0
9789 -747 0
-2184 58 0
-2184 -59 0
-2184 -60 0
8718 -2184 0
-8762 52 0
-8762 53 0
-8762 -54 0
-8762 7134 0
-9367 -19 0
-9367 20 0
-9367 -21 0
-9367 7981 0
-6473 -49 0
-6473 -50 0
-6473 51 0
7199 -6473 0
-7766 -34 0
-7766 -35 0
-7766 -36 0
-7766 7612 0
-200 -46 0
-200 -47 0
-200 48 0
9044 -200 0
-1438 64 0
-1438 65 0
-1438 -66 0
6608 -1438 0
-1517 37 0
-1517 38 0
-1517 -39 0
6709 -1517 0
-2591 -25 0
-2591 -26 0
-2591 -27 0
9609 -2591 0
-7466 -58 0
-7466 59 0
-7466 -60 0
-7466 6234 0
-818 -52 0
-818 -53 0
-818 54 0
9860 -818 0
-1723 -61 0
-1723 -62 0
-1723 -63 0
8213 -1723 0
-432 16 0
-432 -17 0
-432 -18 0
5470 -432 0
-9444 -55 0
-9444 -56 0
-9444 -57 0
-9444 9290 0
-1633 55 0
-1633 56 0
-1633 -57 0
6847 -1633 0
-1195 -61 0
-1195 62 0
-1195 -63 0
6123 -1195 0
-2234 76 0
-2234 -77 0
-2234 -78 0
8790 -2234 0
-9640 -46 0
-9640 47 0
-9640 -48 0
-9640 8474 0
-7623 64 0
-7623 -65 0
-7623 -66 0
-7623 7007 0
-907 55 0
-907 -56 0
-907 -57 0
6451 -907 0
-7377 -55 0
-7377 56 0
-7377 -57 0
-7377 6079 0
-1993 13 0
-1993 14 0
-1993 -15 0
7471 -1993 0
-9435 -28 0
-9435 -29 0
-9435 -30 0
-9435 9281 0
-1445 19 0
-1445 20 0
-1445 -21 0
6615 -1445 0
-7551 -49 0
-7551 -50 0
-7551 -51 0
-7551 7397 0
-9751 52 0
-9751 -53 0
-9751 -54 0
-9751 9289 0
-8935 46 0
-8935 47 0
-8935 -48 0
-8935 7505 0
-716 -76 0
-716 -77 0
-716 78 0
9736 -716 0
-7995 58 0
-7995 59 0
-7995 -60 0
-7995 5663 0
-1391 -55 0
-1391 -56 0
-1391 -57 0
7573 -1391 0
-659 -37 0
-659 -38 0
-659 39 0
9679 -659 0
-8096 34 0
-8096 35 0
-8096 -36 0
-8096 5852 0
-8336 31 0
-8336 32 0
-8336 -33 0
-8336 6268 0
-7212 -25 0
-7212 26 0
-7212 -27 0
-7212 5826 0
-8187 -46 0
-8187 -47 0
-8187 -48 0
-8187 8099 0
-9093 58 0
-9093 59 0
-9093 -60 0
-9093 7773 0
-7178 -52 0
-7178 -53 0
-7178 -54 0
-7178 6980 0
-7404 -67 0
-7404 68 0
-7404 -69 0
-7404 6106 0
-7857 37 0
-7857 38 0
-7857 -39 0
-1861 13 0
-1861 14 0
-1861 -15 0
7273 -1861 0
-6659 -16 0
-6659 -17 0
-6659 18 0
9761 -6659 0
-1386 -40 0
-1386 -41 0
-1386 -42 0
7568 -1386 0
-9716 -13 0
-9716 -14 0
-9716 -15 0
-9716 9628 0
-9169 22 0
-9169 -23 0
-9169 -24 0
-9169 8751 0
-5900 -49 0
-5900 -50 0
-5900 51 0
8584 -5900 0
-6860 25 0
-6860 -26 0
-6860 -27 0
-6860 6464 0
-7951 64 0
-7951 65 0
-7951 -66 0
-7951 6521 0
-9285 -37 0
-9285 38 0
-9285 -39 0
-9285 7833 0
-9160 58 0
-9160 -59 0
-9160 -60 0
-9160 8698 0
-7515 -10 0
-7515 -11 0
-7515 -12 0
-7515 7361 0
-277 -13 0
-277 -14 0
-277 -15 0
5667 -277 0
-7135 -52 0
-7135 53 0
-7135 -54 0
-7135 5661 0
-812 -34 0
-812 -35 0
-812 36 0
9854 -812 0
-6111 22 0
-6111 -23 0
-6111 -24 0
-6111 5495 0
-1628 40 0
-1628 41 0
-1628 -42 0
6842 -1628 0
-7172 -34 0
-7172 -35 0
-7172 -36 0
-7172 6974 0
-8138 31 0
-8138 32 0
-8138 -33 0
-8138 5960 0
-829 -19 0
-829 -20 0
-829 -21 0
6659 -829 0
-7679 37 0
-7679 -38 0
-7679 -39 0
-7679 7129 0
-370 -28 0
-370 -29 0
-370 30 0
9236 -370 0
-663 -49 0
-663 -50 0
-663 51 0
9683 -663 0
-9814 43 0
-9814 -44 0
-9814 -45 0
-9814 9418 0
-8102 52 0
-8102 53 0
-8102 -54 0
-8102 5858 0
-9592 -37 0
-9592 -38 0
-9592 -39 0
-9592 9504 0
-7369 -31 0
-7369 32 0
-7369 -33 0
-7369 6071 0
-1730 16 0
-1730 -17 0
-1730 -18 0
7868 -1730 0
-8642 25 0
-8642 26 0
-8642 -27 0
-8642 7234 0
-902 40 0
-902 -41 0
-902 -42 0
6446 -902 0
-1915 43 0
-1915 44 0
-1915 -45 0
7327 -1915 0
-6422 -28 0
-6422 -29 0
-6422 30 0
7126 -6422 0
-2536 -58 0
-2536 59 0
-2536 -60 0
8520 -2536 0
-8053 -34 0
-8053 -35 0
-8053 -36 0
-8053 7855 0
-2251 61 0
-2251 -62 0
-2251 -63 0
8829 -2251 0
-6985 -64 0
-6985 65 0
-6985 -66 0
-6985 5445 0
-7695 22 0
-7695 -23 0
-7695 -24 0
-7695 7167 0
-9601 -64 0
-9601 -65 0
-9601 -66 0
-9601 9513 0
-6682 -16 0
-6682 -17 0
-6682 18 0
7606 -6682 0
-5730 -67 0
-5730 -68 0
-5730 69 0
8326 -5730 0
-1903 73 0
-1903 74 0
-1903 -75 0
7315 -1903 0
-7992 49 0
-7992 50 0
-7992 -51 0
-7992 5660 0
-7793 52 0
-7793 53 0
-7793 -54 0
-7793 6561 0
-7358 -67 0
-7358 68 0
-7358 -69 0
-7358 6060 0
-5655 -31 0
-5655 -32 0
-5655 -33 0
-9398 -49 0
-9398 50 0
-9398 -51 0
-9398 8034 0
-265 -43 0
-265 -44 0
-265 45 0
9109 -265 0
-8517 46 0
-8517 -47 0
-8517 -48 0
-8517 7967 0
-6494 -49 0
-6494 -50 0
-6494 -51 0
-6494 6340 0
-9660 -43 0
-9660 44 0
-9660 -45 0
-9660 8538 0
-9732 -61 0
-9732 -62 0
-9732 -63 0
-9732 9644 0
-751 -49 0
-751 -50 0
-751 51 0
9793 -751 0
-9409 -13 0
-9409 14 0
-9409 -15 0
-9409 8045 0
-8028 -28 0
-8028 -29 0
-8028 -30 0
-8028 7830 0
-7772 -52 0
-7772 -53 0
-7772 -54 0
-7772 7618 0
-8785 58 0
-8785 59 0
-8785 -60 0
-8785 7179 0
-2260 -22 0
-2260 -23 0
-2260 -24 0
9124 -2260 0
-6077 46 0
-6077 -47 0
-6077 -48 0
-6077 5439 0
-7942 37 0
-7942 38 0
-7942 -39 0
-7942 6512 0
-8756 34 0
-8756 35 0
-8756 -36 0
-8756 7128 0
-5578 -67 0
-5578 -68 0
-5578 69 0
5666 -5578 0
-1521 49 0
-1521 50 0
-1521 -51 0
6713 -1521 0
-5500 -34 0
-5500 -35 0
-5500 36 0
7986 -5500 0
-1469 25 0
-1469 26 0
-1469 -27 0
6639 -1469 0
-9560 -73 0
-9560 74 0
-9560 -75 0
-9560 8372 0
-9250 -67 0
-9250 -68 0
-9250 -69 0
-9250 9162 0
-9788 31 0
-9788 -32 0
-9788 -33 0
-9788 9370 0
-9583 -10 0
-9583 -11 0
-9583 -12 0
-9583 9495 0
-5529 -58 0
-5529 -59 0
-5529 60 0
8851 -5529 0
-9780 70 0
-9780 -71 0
-9780 -72 0
-9780 9318 0
-5774 -67 0
-5774 -68 0
-5774 69 0
8414 -5774 0
-7688 64 0
-7688 -65 0
-7688 -66 0
-7688 7138 0
-174 -34 0
-174 -35 0
-174 -36 0
5366 -174 0
-7601 67 0
-7601 -68 0
-7601 -69 0
-7601 6985 0
-6168 58 0
-6168 -59 0
-6168 -60 0
-6168 5574 0
-5660 -46 0
-5660 -47 0
-5660 -48 0
-8365 49 0
-8365 50 0
-8365 -51 0
-8365 6297 0
-147 -19 0
-147 -20 0
-147 21 0
8969 -147 0
-8179 -22 0
-8179 -23 0
-8179 -24 0
-8179 8091 0
-9383 -67 0
-9383 68 0
-9383 -69 0
-9383 7997 0
-2592 -28 0
-2592 -29 0
-2592 -30 0
9610 -2592 0
-2250 58 0
-2250 -59 0
-2250 -60 0
8828 -2250 0
-8730 25 0
-8730 26 0
-8730 -27 0
-8730 7102 0
-142 -70 0
-142 -71 0
-142 72 0
8964 -142 0
-6059 61 0
-6059 -62 0
-6059 -63 0
-6059 5421 0
-7970 52 0
-7970 53 0
-7970 -54 0
-7970 5638 0
-7080 -25 0
-7080 26 0
-7080 -27 0
-7080 5606 0
-2620 46 0
-2620 -47 0
-2620 -48 0
9330 -2620 0
-8927 22 0
-8927 23 0
-8927 -24 0
-8927 7497 0
-7808 28 0
-7808 29 0
-7808 -30 0
-7808 6356 0
-1587 49 0
-1587 50 0
-1587 -51 0
6779 -1587 0
-9294 -64 0
-9294 65 0
-9294 -66 0
-9294 7842 0
-9503 -31 0
-9503 32 0
-9503 -33 0
-9503 8249 0
-7524 -37 0
-7524 -38 0
-7524 -39 0
-7524 7370 0
-5749 -58 0
-5749 -59 0
-5749 60 0
8367 -5749 0
-5488 -67 0
-5488 -68 0
-5488 69 0
8810 -5488 0
-6364 -49 0
-6364 -50 0
-6364 51 0
7002 -6364 0
-9678 -31 0
-9678 32 0
-9678 -33 0
-9678 8578 0
-7059 -25 0
-7059 26 0
-7059 -27 0
-7059 5563 0
-2572 -34 0
-2572 35 0
-2572 -36 0
8600 -2572 0
-1675 49 0
-1675 50 0
-1675 -51 0
6889 -1675 0
-9443 -52 0
-9443 -53 0
-9443 -54 0
-9443 9289 0
-7933 10 0
-7933 11 0
-7933 -12 0
-7933 6503 0
-1262 -64 0
-1262 65 0
-1262 -66 0
6256 -1262 0
-7533 -64 0
-7533 -65 0
-7533 -66 0
-7533 7379 0
-2537 -61 0
-2537 62 0
-2537 -63 0
8521 -2537 0
-141 -67 0
-141 -68 0
-141 69 0
8963 -141 0
-2487 -43 0
-2487 -44 0
-2487 -45 0
9483 -2487 0
-9743 28 0
-9743 -29 0
-9743 -30 0
-9743 9281 0
-1658 64 0
-1658 65 0
-1658 -66 0
6872 -1658 0
-9493 -70 0
-9493 71 0
-9493 -72 0
-9493 8239 0
-2286 -34 0
-2286 35 0
-2286 -36 0
8116 -2286 0
-8849 -49 0
-8849 -50 0
-8849 -51 0
-8849 8695 0
-2344 -76 0
-2344 77 0
-2344 -78 0
8174 -2344 0
-6054 46 0
-6054 -47 0
-6054 -48 0
-6054 5416 0
-8702 67 0
-8702 68 0
-8702 -69 0
-8702 7008 0
-8255 46 0
-8255 47 0
-8255 -48 0
-8255 6099 0
-9752 55 0
-9752 -56 0
-9752 -57 0
-9752 9290 0
-8627 -43 0
-8627 -44 0
-8627 -45 0
-8627 8473 0
-7272 -73 0
-7272 74 0
-7272 -75 0
-7272 5930 0
-5639 -52 0
-5639 -53 0
-5639 -54 0
-5639 5441 0
-6506 -16 0
-6506 -17 0
-6506 -18 0
-6506 6352 0
-8509 22 0
-8509 -23 0
-8509 -24 0
-8509 7959 0
-1671 37 0
-1671 38 0
-1671 -39 0
6885 -1671 0
-7703 46 0
-7703 -47 0
-7703 -48 0
-7703 7175 0
-1952 22 0
-1952 23 0
-1952 -24 0
7408 -1952 0
-1563 43 0
-1563 44 0
-1563 -45 0
6755 -1563 0
-9500 -22 0
-9500 23 0
-9500 -24 0
-9500 8246 0
-5414 -37 0
-5414 -38 0
-5414 39 0
7856 -5414 0
-7422 -61 0
-7422 62 0
-7422 -63 0
-7422 6168 0
-474 76 0
-474 -77 0
-474 -78 0
5534 -474 0
-8582 40 0
-8582 -41 0
-8582 -42 0
-8582 8054 0
-5923 -49 0
-5923 -50 0
-5923 51 0
6231 -5923 0
-1194 -58 0
-1194 59 0
-1194 -60 0
6122 -1194 0
-6240 -13 0
-6240 -14 0
-6240 -15 0
-6240 6042 0
-1722 -58 0
-1722 -59 0
-1722 -60 0
8212 -1722 0
-6194 73 0
-6194 -74 0
-6194 -75 0
-6194 5622 0
-6205 37 0
-6205 -38 0
-6205 -39 0
-6205 5633 0
-6448 -43 0
-6448 -44 0
-6448 45 0
9462 -6448 0
-7886 67 0
-7886 68 0
-7886 -69 0
-7886 6434 0
-5427 -7 0
-5427 -8 0
-5427 9 0
-1234 -46 0
-1234 47 0
-1234 -48 0
6184 -1234 0
-180 -52 0
-180 -53 0
-180 -54 0
5372 -180 0
-8074 37 0
-8074 38 0
-8074 -39 0
-8074 6688 0
-369 -25 0
-369 -26 0
-369 27 0
9235 -369 0
-9177 46 0
-9177 -47 0
-9177 -48 0
-9177 8759 0
-1146 -46 0
-1146 47 0
-1146 -48 0
5986 -1146 0
-6256 -61 0
-6256 -62 0
-6256 -63 0
-6256 6058 0
-7794 55 0
-7794 56 0
-7794 -57 0
-7794 6562 0
-6119 46 0
-6119 -47 0
-6119 -48 0
-6119 5503 0
-2292 -52 0
-2292 53 0
-2292 -54 0
8122 -2292 0
-2185 61 0
-2185 -62 0
-2185 -63 0
8719 -2185 0
-9511 -55 0
-9511 56 0
-9511 -57 0
-9511 8257 0
-6596 -25 0
-6596 -26 0
-6596 27 0
7498 -6596 0
-9214 25 0
-9214 -26 0
-9214 -27 0
-9214 8840 0
-8083 64 0
-8083 65 0
-8083 -66 0
-8083 6697 0
-7785 28 0
-7785 29 0
-7785 -30 0
-7785 6553 0
-1101 -43 0
-1101 44 0
-1101 -45 0
5897 -1101 0
-5996 -73 0
-5996 -74 0
-5996 -75 0
-5996 5842 0
-7825 10 0
-7825 11 0
-7825 -12 0
-7825 5427 0
-6802 49 0
-6802 -50 0
-6802 -51 0
-6802 6340 0
-7719 25 0
-7719 -26 0
-7719 -27 0
-7719 7191 0
-5656 -34 0
-5656 -35 0
-5656 -36 0
-1470 28 0
-1470 29 0
-1470 -30 0
6640 -1470 0
-6367 -58 0
-6367 -59 0
-6367 60 0
7005 -6367 0
-2578 -52 0
-2578 53 0
-2578 -54 0
8606 -2578 0
-221 -43 0
-221 -44 0
-221 45 0
9065 -221 0
-7964 34 0
-7964 35 0
-7964 -36 0
-7964 5632 0
-7406 -13 0
-7406 14 0
-7406 -15 0
-7406 6152 0
-2361 -61 0
-2361 62 0
-2361 -63 0
8191 -2361 0
-6131 16 0
-6131 -17 0
-6131 -18 0
-6131 5537 0
-2109 31 0
-2109 32 0
-2109 -33 0
7697 -2109 0
-1583 37 0
-1583 38 0
-1583 -39 0
6775 -1583 0
-7055 -13 0
-7055 14 0
-7055 -15 0
-7055 5559 0
-9186 73 0
-9186 -74 0
-9186 -75 0
-9186 8768 0
-2318 -64 0
-2318 65 0
-2318 -66 0
8148 -2318 0
-1238 -58 0
-1238 59 0
-1238 -60 0
6188 -1238 0
-8287 16 0
-8287 17 0
-8287 -18 0
-8287 6197 0
-253 -73 0
-253 -74 0
-253 75 0
9097 -253 0
-1755 25 0
-1755 -26 0
-1755 -27 0
7893 -1755 0
-6128 73 0
-6128 -74 0
-6128 -75 0
-6128 5512 0
-9002 49 0
-9002 50 0
-9002 -51 0
-9002 7594 0
-1718 -46 0
-1718 -47 0
-1718 -48 0
8208 -1718 0
-5758 -19 0
-5758 -20 0
-5758 21 0
8398 -5758 0
-1190 -46 0
-1190 47 0
-1190 -48 0
6118 -1190 0
-5830 -34 0
-5830 -35 0
-5830 36 0
8470 -5830 0
-1684 76 0
-1684 77 0
-1684 -78 0
6898 -1684 0
-5477 -34 0
-5477 -35 0
-5477 36 0
8799 -5477 0
-1747 67 0
-1747 -68 0
-1747 -69 0
7885 -1747 0
-9234 -19 0
-9234 -20 0
-9234 -21 0
-9234 9146 0
-9258 -25 0
-9258 26 0
-9258 -27 0
-9258 8092 0
-8064 -67 0
-8064 -68 0
-8064 -69 0
-8064 7866 0
-5987 -46 0
-5987 -47 0
-5987 -48 0
-5987 5833 0
-5765 -40 0
-5765 -41 0
-5765 42 0
8405 -5765 0
-9621 -58 0
-9621 59 0
-9621 -60 0
-9621 8455 0
-8476 49 0
-8476 -50 0
-8476 -51 0
-8476 7860 0
-9241 -40 0
-9241 -41 0
-9241 -42 0
-9241 9153 0
-2335 -49 0
-2335 50 0
-2335 -51 0
8165 -2335 0
-7494 -10 0
-7494 11 0
-7494 -12 0
-7494 6284 0
-8330 13 0
-8330 14 0
-8330 -15 0
-8330 6262 0
-1845 31 0
-1845 32 0
-1845 -33 0
7257 -1845 0
-7752 -61 0
-7752 -62 0
-7752 -63 0
-7752 7598 0
-1133 -73 0
-1133 74 0
-1133 -75 0
5951 -1133 0
-461 37 0
-461 -38 0
-461 -39 0
5521 -461 0
-2128 22 0
-2128 23 0
-2128 -24 0
7738 -2128 0
-689 -61 0
-689 -62 0
-689 63 0
9709 -689 0
-9847 -10 0
-9847 -11 0
-9847 -12 0
-9847 9759 0
-8346 61 0
-8346 62 0
-8346 -63 0
-8346 6278 0
-7263 -46 0
-7263 47 0
-7263 -48 0
-7263 5921 0
-9516 -70 0
-9516 71 0
-9516 -72 0
-9516 8262 0
-7636 43 0
-7636 -44 0
-7636 -45 0
-7636 7064 0
-7712 73 0
-7712 -74 0
-7712 -75 0
-7712 7184 0
-7736 -13 0
-7736 -14 0
-7736 -15 0
-7736 7582 0
-6064 7 0
-6064 -8 0
-6064 -9 0
-6064 5426 0
-5763 -34 0
-5763 -35 0
-5763 36 0
8403 -5763 0
-5567 -34 0
-5567 -35 0
-5567 36 0
5655 -5567 0
-5472 -19 0
-5472 -20 0
-5472 21 0
8794 -5472 0
-485 43 0
-485 -44 0
-485 -45 0
5589 -485 0
-9239 -34 0
-9239 -35 0
-9239 -36 0
-9239 9151 0
-205 -61 0
-205 -62 0
-205 63 0
9049 -205 0
-1596 76 0
-1596 77 0
-1596 -78 0
6788 -1596 0
-6976 -37 0
-6976 38 0
-6976 -39 0
-6976 5436 0
-7460 -40 0
-7460 41 0
-7460 -42 0
-7460 6228 0
-874 22 0
-874 -23 0
-874 -24 0
6396 -874 0
-6185 46 0
-6185 -47 0
-6185 -48 0
-6185 5613 0
-5479 -40 0
-5479 -41 0
-5479 42 0
8801 -5479 0
-1748 70 0
-1748 -71 0
-1748 -72 0
7886 -1748 0
-2703 -31 0
-2703 -32 0
-2703 -33 0
9743 -2703 0
-9767 31 0
-9767 -32 0
-9767 -33 0
-9767 9305 0
-1551 73 0
-1551 74 0
-1551 -75 0
6743 -1551 0
-1150 -58 0
-1150 59 0
-1150 -60 0
5990 -1150 0
-450 70 0
-450 -71 0
-450 -72 0
5488 -450 0
-8479 58 0
-8479 -59 0
-8479 -60 0
-8479 7863 0
-5945 -52 0
-5945 -53 0
-5945 54 0
8629 -5945 0
-9775 55 0
-9775 -56 0
-9775 -57 0
-9775 9313 0
-1614 -64 0
-1614 -65 0
-1614 -66 0
8082 -1614 0
-2624 58 0
-2624 -59 0
-2624 -60 0
9334 -2624 0
-7594 46 0
-7594 -47 0
-7594 -48 0
-7594 6978 0
-9200 49 0
-9200 -50 0
-9200 -51 0
-9200 8804 0
-6721 -70 0
-6721 -71 0
-6721 72 0
7689 -6721 0
-7014 -25 0
-7014 26 0
-7014 -27 0
-7014 5496 0
-2246 46 0
-2246 -47 0
-2246 -48 0
8824 -2246 0
-6068 19 0
-6068 -20 0
-6068 -21 0
-6068 5430 0
-7097 -7 0
-7097 8 0
-7097 -9 0
-7097 5623 0
-8148 61 0
-8148 62 0
-8148 -63 0
-8148 5970 0
-7051 -70 0
-7051 71 0
-7051 -72 0
-7051 5555 0
-6021 16 0
-6021 -17 0
-6021 -18 0
-6021 5383 0
-7829 22 0
-7829 23 0
-7829 -24 0
-7829 5431 0
-7877 40 0
-7877 41 0
-7877 -42 0
-7877 6425 0
-5370 -43 0
-5370 -44 0
-5370 45 0
8890 -5370 0
-6637 -16 0
-6637 -17 0
-6637 -18 0
-6637 6549 0
-7436 -37 0
-7436 38 0
-7436 -39 0
-7436 6204 0
-7870 19 0
-7870 20 0
-7870 -21 0
-7870 6418 0
-8164 43 0
-8164 44 0
-8164 -45 0
-8164 6008 0
-7715 13 0
-7715 -14 0
-7715 -15 0
-7715 7187 0
-2391 -19 0
-2391 20 0
-2391 -21 0
8265 -2391 0
-499 -19 0
-499 -20 0
-499 -21 0
6021 -499 0
-9376 -46 0
-9376 47 0
-9376 -48 0
-9376 7990 0
-965 -31 0
-965 32 0
-965 -33 0
5717 -965 0
-9631 -19 0
-9631 20 0
-9631 -21 0
-9631 8465 0
-9154 40 0
-9154 -41 0
-9154 -42 0
-9154 8692 0
-9551 -46 0
-9551 47 0
-9551 -48 0
-9551 8363 0
-5836 -52 0
-5836 -53 0
-5836 54 0
8476 -5836 0
-5635 -40 0
-5635 -41 0
-5635 -42 0
-5635 5437 0
-7445 -64 0
-7445 65 0
-7445 -66 0
-7445 6213 0
-1493 -31 0
-1493 -32 0
-1493 -33 0
7785 -1493 0
-7599 61 0
-7599 -62 0
-7599 -63 0
-7599 6983 0
-9764 22 0
-9764 -23 0
-9764 -24 0
-9764 9302 0
-9722 -31 0
-9722 -32 0
-9722 -33 0
-9722 9634 0
-2450 -64 0
-2450 65 0
-2450 -66 0
8346 -2450 0
-7393 -34 0
-7393 35 0
-7393 -36 0
-7393 6095 0
-2545 -19 0
-2545 20 0
-2545 -21 0
8551 -2545 0
-6061 67 0
-6061 -68 0
-6061 -69 0
-6061 5423 0
-449 67 0
-449 -68 0
-449 -69 0
5487 -449 0
-7875 34 0
-7875 35 0
-7875 -36 0
-7875 6423 0
-8618 -16 0
-8618 -17 0
-8618 -18 0
-8618 8464 0
-6515 -43 0
-6515 -44 0
-6515 -45 0
-6515 6361 0
-2331 -37 0
-2331 38 0
-2331 -39 0
8161 -2331 0
-7614 37 0
-7614 -38 0
-7614 -39 0
-7614 6998 0
-8241 4 0
-8241 5 0
-8241 -6 0
-8241 6085 0
-1050 -22 0
-1050 -23 0
-1050 -24 0
6924 -1050 0
-8132 13 0
-8132 14 0
-8132 -15 0
-8132 5954 0
-9381 -61 0
-9381 62 0
-9381 -63 0
-9381 7995 0
-413 25 0
-413 -26 0
-413 -27 0
5451 -413 0
-465 49 0
-465 -50 0
-465 -51 0
5525 -465 0
-7427 -10 0
-7427 11 0
-7427 -12 0
-7427 6195 0
-8246 19 0
-8246 20 0
-8246 -21 0
-8246 6090 0
-2532 -46 0
-2532 47 0
-2532 -48 0
8516 -2532 0
-7229 -7 0
-7229 8 0
-7229 -9 0
-7229 5843 0
-9035 16 0
-9035 17 0
-9035 -18 0
-9035 7671 0
-9672 -13 0
-9672 14 0
-9672 -15 0
-9672 8572 0
-7255 -22 0
-7255 23 0
-7255 -24 0
-7255 5913 0
-1756 28 0
-1756 -29 0
-1756 -30 0
7894 -1756 0
-2225 49 0
-2225 -50 0
-2225 -51 0
8781 -2225 0
-8526 73 0
-8526 -74 0
-8526 -75 0
-8526 7976 0
-646 -64 0
-646 -65 0
-646 66 0
9666 -646 0
-2692 64 0
-2692 -65 0
-2692 -66 0
9446 -2692 0
-1362 34 0
-1362 -35 0
-1362 -36 0
7148 -1362 0
-9695 -16 0
-9695 17 0
-9695 -18 0
-9695 8617 0
-707 -49 0
-707 -50 0
-707 51 0
9727 -707 0
-990 -40 0
-990 41 0
-990 -42 0
5742 -990 0
-785 -19 0
-785 -20 0
-785 21 0
9827 -785 0
-9798 61 0
-9798 -62 0
-9798 -63 0
-9798 9380 0
-5423 -64 0
-5423 -65 0
-5423 66 0
7865 -5423 0
-6177 22 0
-6177 -23 0
-6177 -24 0
-6177 5605 0
-8375 -16 0
-8375 -17 0
-8375 -18 0
-8375 8221 0
-6897 70 0
-6897 -71 0
-6897 -72 0
-6897 6523 0
-6162 40 0
-6162 -41 0
-6162 -42 0
-6162 5568 0
-1875 55 0
-1875 56 0
-1875 -57 0
7287 -1875 0
-6787 -70 0
-6787 -71 0
-6787 -72 0
-6787 6699 0
-5979 -22 0
-5979 -23 0
-5979 -24 0
-5979 5825 0
-291 -55 0
-291 -56 0
-291 -57 0
5681 -291 0
-7852 22 0
-7852 23 0
-7852 -24 0
-6582 -49 0
-6582 -50 0
-6582 51 0
7462 -6582 0
-5855 -40 0
-5855 -41 0
-5855 42 0
6097 -5855 0
-1406 34 0
-1406 35 0
-1406 -36 0
6576 -1406 0
-9782 13 0
-9782 -14 0
-9782 -15 0
-9782 9364 0
-5610 -34 0
-5610 -35 0
-5610 -36 0
-5610 5412 0
-2625 61 0
-2625 -62 0
-2625 -63 0
9335 -2625 0
-6063 4 0
-6063 -5 0
-6063 -6 0
-6063 5425 0
-778 -64 0
-778 -65 0
-778 66 0
9820 -778 0
-1313 19 0
-1313 -20 0
-1313 -21 0
7033 -1313 0
-598 -52 0
-598 -53 0
-598 54 0
9596 -598 0
-2002 40 0
-2002 41 0
-2002 -42 0
7480 -2002 0
-9688 -61 0
-9688 62 0
-9688 -63 0
-9688 8588 0
-1009 -31 0
-1009 32 0
-1009 -33 0
5761 -1009 0
-9346 -25 0
-9346 26 0
-9346 -27 0
-9346 7960 0
-7347 -34 0
-7347 35 0
-7347 -36 0
-7347 6049 0
-5616 -52 0
-5616 -53 0
-5616 -54 0
-5616 5418 0
-9865 -64 0
-9865 -65 0
-9865 -66 0
-9865 9777 0
-204 -58 0
-204 -59 0
-204 60 0
9048 -204 0
-1619 13 0
-1619 14 0
-1619 -15 0
6833 -1619 0
-5937 -28 0
-5937 -29 0
-5937 30 0
8621 -5937 0
-5719 -34 0
-5719 -35 0
-5719 36 0
8315 -5719 0
-5946 -55 0
-5946 -56 0
-5946 57 0
8630 -5946 0
-1368 52 0
-1368 -53 0
-1368 -54 0
7154 -1368 0
-1151 -61 0
-1151 62 0
-1151 -63 0
5991 -1151 0
-9543 -22 0
-9543 23 0
-9543 -24 0
-9543 8355 0
-2007 55 0
-2007 56 0
-2007 -57 0
7485 -2007 0
-2180 46 0
-2180 -47 0
-2180 -48 0
8714 -2180 0
-893 13 0
-893 -14 0
-893 -15 0
6437 -893 0
-1377 -13 0
-1377 -14 0
-1377 -15 0
7559 -1377 0
-6691 -43 0
-6691 -44 0
-6691 45 0
7615 -6691 0
-1530 76 0
-1530 77 0
-1530 -78 0
6722 -1530 0
-5581 -16 0
-5581 -17 0
-5581 -18 0
-5581 5383 0
-1870 40 0
-1870 41 0
-1870 -42 0
7282 -1870 0
-2356 -46 0
-2356 47 0
-2356 -48 0
8186 -2356 0
-7412 -31 0
-7412 32 0
-7412 -33 0
-7412 6158 0
-9413 -25 0
-9413 26 0
-9413 -27 0
-9413 8049 0
-688 -58 0
-688 -59 0
-688 60 0
9708 -688 0
-1779 31 0
-1779 -32 0
-1779 -33 0
7939 -1779 0
-8944 73 0
-8944 74 0
-8944 -75 0
-8944 7514 0
-286 -40 0
-286 -41 0
-286 -42 0
5676 -286 0
-760 -76 0
-760 -77 0
-760 78 0
9802 -760 0
-8196 -73 0
-8196 -74 0
-8196 -75 0
-8196 8108 0
-8439 7 0
-8439 -8 0
-8439 -9 0
-8439 7823 0
-7861 49 0
-7861 50 0
-7861 -51 0
-9647 -67 0
-9647 68 0
-9647 -69 0
-9647 8481 0
-6307 -16 0
-6307 -17 0
-6307 18 0
9497 -6307 0
-7342 -19 0
-7342 20 0
-7342 -21 0
-7342 6044 0
-8242 7 0
-8242 8 0
-8242 -9 0
-8242 6086 0
-8877 70 0
-8877 71 0
-8877 -72 0
-8877 7381 0
-592 -34 0
-592 -35 0
-592 36 0
9590 -592 0
-7131 -40 0
-7131 41 0
-7131 -42 0
-7131 5657 0
-995 -55 0
-995 56 0
-995 -57 0
5747 -995 0
-5714 -19 0
-5714 -20 0
-5714 21 0
8310 -5714 0
-7382 -70 0
-7382 71 0
-7382 -72 0
-7382 6084 0
-2221 37 0
-2221 -38 0
-2221 -39 0
8777 -2221 0
-8691 34 0
-8691 35 0
-8691 -36 0
-8691 6997 0
-9856 -37 0
-9856 -38 0
-9856 -39 0
-9856 9768 0
-5721 -40 0
-5721 -41 0
-5721 42 0
8317 -5721 0
-6045 19 0
-6045 -20 0
-6045 -21 0
-6045 5407 0
-1239 -61 0
-1239 62 0
-1239 -63 0
6189 -1239 0
-414 28 0
-414 -29 0
-414 -30 0
5452 -414 0
-609 -19 0
-609 -20 0
-609 -21 0
6307 -609 0
-6995 -25 0
-6995 26 0
-6995 -27 0
-2047 -43 0
-2047 -44 0
-2047 -45 0
8867 -2047 0
-672 -76 0
-672 -77 0
-672 78 0
9692 -672 0
-124 -16 0
-124 -17 0
-124 18 0
8946 -124 0
-5812 -49 0
-5812 -50 0
-5812 51 0
9156 -5812 0
-703 -37 0
-703 -38 0
-703 39 0
9723 -703 0
-6246 -31 0
-6246 -32 0
-6246 -33 0
-6246 6048 0
-1412 52 0
-1412 53 0
-1412 -54 0
6582 -1412 0
-7349 -40 0
-7349 41 0
-7349 -42 0
-7349 6051 0
-8588 58 0
-8588 -59 0
-8588 -60 0
-8588 8060 0
-9091 52 0
-9091 53 0
-9091 -54 0
-9091 7771 0
-6828 58 0
-6828 -59 0
-6828 -60 0
-6828 6366 0
-7253 -16 0
-7253 17 0
-7253 -18 0
-7253 5911 0
-9037 22 0
-9037 23 0
-9037 -24 0
-9037 7673 0
-6954 -40 0
-6954 41 0
-6954 -42 0
-6954 5414 0
-9753 58 0
-9753 -59 0
-9753 -60 0
-9753 9291 0
-556 -58 0
-556 -59 0
-556 60 0
9554 -556 0
-1374 70 0
-1374 -71 0
-1374 -72 0
7160 -1374 0
-9332 -49 0
-9332 50 0
-9332 -51 0
-9332 7924 0
-7540 -16 0
-7540 -17 0
-7540 -18 0
-7540 7386 0
-1417 67 0
-1417 68 0
-1417 -69 0
6587 -1417 0
-852 22 0
-852 -23 0
-852 -24 0
6374 -852 0
-2633 19 0
-2633 -20 0
-2633 -21 0
9343 -2633 0
-7717 19 0
-7717 -20 0
-7717 -21 0
-7717 7189 0
-8377 -22 0
-8377 -23 0
-8377 -24 0
-8377 8223 0
-6250 -43 0
-6250 -44 0
-6250 -45 0
-6250 6052 0
-6175 16 0
-6175 -17 0
-6175 -18 0
-6175 5603 0
-2426 -58 0
-2426 59 0
-2426 -60 0
8300 -2426 0
-7918 28 0
-7918 29 0
-7918 -30 0
-7918 5564 0
-5748 -55 0
-5748 -56 0
-5748 57 0
8366 -5748 0
-1545 55 0
-1545 56 0
-1545 -57 0
6737 -1545 0
-8471 34 0
-8471 -35 0
-8471 -36 0
-8471 7855 0
-9697 -22 0
-9697 23 0
-9697 -24 0
-9697 8619 0
-1618 -76 0
-1618 -77 0
-1618 -78 0
8086 -1618 0
-5739 -28 0
-5739 -29 0
-5739 30 0
8357 -5739 0
-7326 -37 0
-7326 -38 0
-7326 -39 0
-7326 7238 0
-7105 -31 0
-7105 32 0
-7105 -33 0
-7105 5631 0
-7512 -64 0
-7512 65 0
-7512 -66 0
-7512 6302 0
-6438 -13 0
-6438 -14 0
-6438 15 0
9452 -6438 0
-6562 -52 0
-6562 -53 0
-6562 54 0
7398 -6562 0
-7002 -46 0
-7002 47 0
-7002 -48 0
-8297 46 0
-8297 47 0
-8297 -48 0
-8297 6207 0
-2593 -31 0
-2593 -32 0
-2593 -33 0
9611 -2593 0
-5977 -16 0
-5977 -17 0
-5977 -18 0
-5977 5823 0
-2377 -43 0
-2377 -44 0
-2377 -45 0
9263 -2377 0
-5572 -49 0
-5572 -50 0
-5572 51 0
5660 -5572 0
-6454 -61 0
-6454 -62 0
-6454 63 0
9468 -6454 0
-1649 37 0
-1649 38 0
-1649 -39 0
6863 -1649 0
-247 -55 0
-247 -56 0
-247 57 0
9091 -247 0
-1696 46 0
-1696 47 0
-1696 -48 0
6910 -1696 0
-6462 -16 0
-6462 -17 0
-6462 18 0
7188 -6462 0
-7335 -64 0
-7335 -65 0
-7335 -66 0
-7335 7247 0
-1253 -37 0
-1253 38 0
-1253 -39 0
6247 -1253 0
-7998 67 0
-7998 68 0
-7998 -69 0
-7998 5666 0
-5528 -55 0
-5528 -56 0
-5528 57 0
8850 -5528 0
-1127 -55 0
-1127 56 0
-1127 -57 0
5945 -1127 0
-9273 -70 0
-9273 71 0
-9273 -72 0
-9273 8107 0
-1212 -46 0
-1212 47 0
-1212 -48 0
6140 -1212 0
-6627 -52 0
-6627 -53 0
-6627 54 0
7551 -6627 0
-1418 70 0
-1418 71 0
-1418 -72 0
6588 -1418 0
-9629 -13 0
-9629 14 0
-9629 -15 0
-9629 8463 0
-2150 -22 0
-2150 -23 0
-2150 -24 0
8992 -2150 0
-6150 73 0
-6150 -74 0
-6150 -75 0
-6150 5556 0
-7401 -58 0
-7401 59 0
-7401 -60 0
-7401 6103 0
-5519 -28 0
-5519 -29 0
-5519 30 0
8841 -5519 0
-2454 -76 0
-2454 77 0
-2454 -78 0
8350 -2454 0
-5447 -10 0
-5447 -11 0
-5447 12 0
8747 -5447 0
-7416 -43 0
-7416 44 0
-7416 -45 0
-7416 6162 0
-5637 -46 0
-5637 -47 0
-5637 -48 0
-5637 5439 0
-1373 67 0
-1373 -68 0
-1373 -69 0
7159 -1373 0
-8602 -37 0
-8602 -38 0
-8602 -39 0
-8602 8448 0
-1471 31 0
-1471 32 0
-1471 -33 0
6641 -1471 0
-9425 -61 0
-9425 62 0
-9425 -63 0
-9425 8061 0
-8257 52 0
-8257 53 0
-8257 -54 0
-8257 6101 0
-9541 -16 0
-9541 17 0
-9541 -18 0
-9541 8353 0
-7889 10 0
-7889 11 0
-7889 -12 0
-7889 6459 0
-1122 -40 0
-1122 41 0
-1122 -42 0
5940 -1122 0
-7149 -34 0
-7149 -35 0
-7149 -36 0
-7149 6951 0
-2280 -16 0
-2280 17 0
-2280 -18 0
8110 -2280 0
-8783 52 0
-8783 53 0
-8783 -54 0
-8783 7177 0
-1653 49 0
-1653 50 0
-1653 -51 0
6867 -1653 0
-7656 37 0
-7656 -38 0
-7656 -39 0
-7656 7106 0
-2108 28 0
-2108 29 0
-2108 -30 0
7696 -2108 0
-6934 -49 0
-6934 50 0
-6934 -51 0
-6934 5702 0
-7102 -22 0
-7102 23 0
-7102 -24 0
-7102 5628 0
-603 -67 0
-603 -68 0
-603 69 0
9601 -603 0
-8886 28 0
-8886 29 0
-8886 -30 0
-8886 7390 0
-1257 -49 0
-1257 50 0
-1257 -51 0
6251 -1257 0
-8118 37 0
-8118 38 0
-8118 -39 0
-8118 5918 0
-5696 -28 0
-5696 -29 0
-5696 30 0
8248 -5696 0
-2566 -16 0
-2566 17 0
-2566 -18 0
8594 -2566 0
-7795 58 0
-7795 59 0
-7795 -60 0
-7795 6563 0
-2322 -76 0
-2322 77 0
-2322 -78 0
8152 -2322 0
-310 -46 0
-310 -47 0
-310 48 0
9176 -310 0
-7057 -19 0
-7057 20 0
-7057 -21 0
-7057 5561 0
-6693 -49 0
-6693 -50 0
-6693 51 0
7617 -6693 0
-242 -40 0
-242 -41 0
-242 42 0
9086 -242 0
-5583 -22 0
-5583 -23 0
-5583 -24 0
-5583 5385 0
-6745 -10 0
-6745 -11 0
-6745 12 0
7757 -6745 0
-1680 64 0
-1680 65 0
-1680 -66 0
6894 -1680 0
-7205 -64 0
-7205 -65 0
-7205 -66 0
-7205 7007 0
-9420 -46 0
-9420 47 0
-9420 -48 0
-9420 8056 0
-7144 -19 0
-7144 -20 0
-7144 -21 0
-7144 6946 0
-7113 -55 0
-7113 56 0
-7113 -57 0
-7113 5639 0
-1592 64 0
-1592 65 0
-1592 -66 0
6784 -1592 0
-8127 64 0
-8127 65 0
-8127 -66 0
-8127 5927 0
-1540 40 0
-1540 41 0
-1540 -42 0
6732 -1540 0
-8945 10 0
-8945 11 0
-8945 -12 0
-8945 7537 0
-7398 -49 0
-7398 50 0
-7398 -51 0
-7398 6100 0
-6031 46 0
-6031 -47 0
-6031 -48 0
-6031 5393 0
-9759 7 0
-9759 -8 0
-9759 -9 0
-9759 9297 0
-6285 -10 0
-6285 -11 0
-6285 -12 0
-6285 6087 0
-1833 -61 0
-1833 -62 0
-1833 -63 0
8433 -1833 0
-6309 -22 0
-6309 -23 0
-6309 24 0
9499 -6309 0
-6556 -34 0
-6556 -35 0
-6556 36 0
7392 -6556 0
-7029 -70 0
-7029 71 0
-7029 -72 0
-7029 5511 0
-8611 -64 0
-8611 -65 0
-8611 -66 0
-8611 8457 0
-6647 -46 0
-6647 -47 0
-6647 -48 0
-6647 6559 0
-7036 -25 0
-7036 26 0
-7036 -27 0
-7036 5540 0
-1798 22 0
-1798 -23 0
-1798 -24 0
8002 -1798 0
-5575 -58 0
-5575 -59 0
-5575 60 0
5663 -5575 0
-604 -70 0
-604 -71 0
-604 72 0
9602 -604 0
-6998 -34 0
-6998 35 0
-6998 -36 0
-7151 -40 0
-7151 -41 0
-7151 -42 0
-7151 6953 0
-6706 -25 0
-6706 -26 0
-6706 27 0
7674 -6706 0
-168 -16 0
-168 -17 0
-168 -18 0
5360 -168 0
-7665 64 0
-7665 -65 0
-7665 -66 0
-7665 7115 0
-2471 -61 0
-2471 62 0
-2471 -63 0
8389 -2471 0
-8109 10 0
-8109 11 0
-8109 -12 0
-8109 5909 0
-297 -73 0
-297 -74 0
-297 -75 0
5687 -297 0
-8963 64 0
-8963 65 0
-8963 -66 0
-8963 7555 0
-6678 -73 0
-6678 -74 0
-6678 75 0
9780 -6678 0
-7234 -22 0
-7234 23 0
-7234 -24 0
-7234 5848 0
-9726 -43 0
-9726 -44 0
-9726 -45 0
-9726 9638 0
-112 -46 0
-112 -47 0
-112 48 0
8934 -112 0
-444 52 0
-444 -53 0
-444 -54 0
5482 -444 0
-9666 -61 0
-9666 62 0
-9666 -63 0
-9666 8544 0
-9083 28 0
-9083 29 0
-9083 -30 0
-9083 7763 0
-1526 64 0
-1526 65 0
-1526 -66 0
6718 -1526 0
-1429 37 0
-1429 38 0
-1429 -39 0
6599 -1429 0
-1291 19 0
-1291 -20 0
-1291 -21 0
7011 -1291 0
-8447 31 0
-8447 -32 0
-8447 -33 0
-8447 7831 0
-1881 73 0
-1881 74 0
-1881 -75 0
7293 -1881 0
-2470 -58 0
-2470 59 0
-2470 -60 0
8388 -2470 0
-756 -64 0
-756 -65 0
-756 66 0
9798 -756 0
-9092 55 0
-9092 56 0
-9092 -57 0
-9092 7772 0
-6079 52 0
-6079 -53 0
-6079 -54 0
-6079 5441 0
-8289 22 0
-8289 23 0
-8289 -24 0
-8289 6199 0
-6754 -37 0
-6754 -38 0
-6754 39 0
7766 -6754 0
-8838 -16 0
-8838 -17 0
-8838 -18 0
-8838 8684 0
-7733 67 0
-7733 -68 0
-7733 -69 0
-7733 7205 0
-8593 -10 0
-8593 -11 0
-8593 -12 0
-8593 8439 0
-9804 13 0
-9804 -14 0
-9804 -15 0
-9804 9408 0
-81 -19 0
-81 -20 0
-81 21 0
8903 -81 0
-9445 -58 0
-9445 -59 0
-9445 -60 0
-9445 9291 0
-7898 37 0
-7898 38 0
-7898 -39 0
-7898 6468 0
-7647 10 0
-7647 -11 0
-7647 -12 0
-7647 7097 0
-1832 -58 0
-1832 -59 0
-1832 -60 0
8432 -1832 0
-6772 -25 0
-6772 -26 0
-6772 -27 0
-6772 6684 0
-5747 -52 0
-5747 -53 0
-5747 54 0
8365 -5747 0
-5396 -52 0
-5396 -53 0
-5396 54 0
8696 -5396 0
-7907 64 0
-7907 65 0
-7907 -66 0
-7907 6477 0
-6882 25 0
-6882 -26 0
-6882 -27 0
-6882 6508 0
-6237 64 0
-6237 -65 0
-6237 -66 0
-6237 5665 0
-5366 -31 0
-5366 -32 0
-5366 33 0
8886 -5366 0
-9820 61 0
-9820 -62 0
-9820 -63 0
-9820 9424 0
-1883 13 0
-1883 14 0
-1883 -15 0
7295 -1883 0
-8354 16 0
-8354 17 0
-8354 -18 0
-8354 6286 0
-7245 -55 0
-7245 56 0
-7245 -57 0
-7245 5859 0
-6043 13 0
-6043 -14 0
-6043 -15 0
-6043 5405 0
-1736 34 0
-1736 -35 0
-1736 -36 0
7874 -1736 0
-668 -64 0
-668 -65 0
-668 66 0
9688 -668 0
-9045 46 0
-9045 47 0
-9045 -48 0
-9045 7681 0
-7133 -46 0
-7133 47 0
-7133 -48 0
-7133 5659 0
-6628 -55 0
-6628 -56 0
-6628 57 0
7552 -6628 0
-8954 37 0
-8954 38 0
-8954 -39 0
-8954 7546 0
-9650 -13 0
-9650 14 0
-9650 -15 0
-9650 8528 0
-6763 -64 0
-6763 -65 0
-6763 66 0
7775 -6763 0
-8385 -46 0
-8385 -47 0
-8385 -48 0
-8385 8231 0
-331 -43 0
-331 -44 0
-331 45 0
9197 -331 0
-5527 -52 0
-5527 -53 0
-5527 54 0
8849 -5527 0
-8699 58 0
-8699 59 0
-8699 -60 0
-8699 7005 0
-8160 31 0
-8160 32 0
-8160 -33 0
-8160 6004 0
-8228 34 0
-8228 35 0
-8228 -36 0
-8228 6072 0
-6619 -28 0
-6619 -29 0
-6619 30 0
7543 -6619 0
-806 -16 0
-806 -17 0
-806 18 0
9848 -806 0
-9705 -46 0
-9705 47 0
-9705 -48 0
-9705 8627 0
-1001 -73 0
-1001 74 0
-1001 -75 0
5753 -1001 0
-2107 25 0
-2107 26 0
-2107 -27 0
7695 -2107 0
-2696 76 0
-2696 -77 0
-2696 -78 0
9450 -2696 0
-8784 55 0
-8784 56 0
-8784 -57 0
-8784 7178 0
-6023 22 0
-6023 -23 0
-6023 -24 0
-6023 5385 0
-8544 58 0
-8544 -59 0
-8544 -60 0
-8544 7994 0
-6317 -46 0
-6317 -47 0
-6317 48 0
9507 -6317 0
-650 -76 0
-650 -77 0
-650 78 0
9670 -650 0
-390 -22 0
-390 -23 0
-390 -24 0
5802 -390 0
-7317 -10 0
-7317 -11 0
-7317 -12 0
-7317 7229 0
-1267 -13 0
-1267 -14 0
-1267 -15 0
7339 -1267 0
-8775 28 0
-8775 29 0
-8775 -30 0
-8775 7169 0
-6086 4 0
-6086 -5 0
-6086 -6 0
-6918 -67 0
-6918 -68 0
-6918 -69 0
-6918 6830 0
-7632 31 0
-7632 -32 0
-7632 -33 0
-7632 7060 0
-7503 -37 0
-7503 38 0
-7503 -39 0
-7503 6293 0
-8234 52 0
-8234 53 0
-8234 -54 0
-8234 6078 0
-7237 -31 0
-7237 32 0
-7237 -33 0
-7237 5851 0
-438 34 0
-438 -35 0
-438 -36 0
5476 -438 0
-728 -46 0
-728 -47 0
-728 -48 0
6536 -728 0
-7567 34 0
-7567 -35 0
-7567 -36 0
-7567 6951 0
-7073 -67 0
-7073 68 0
-7073 -69 0
-7073 5577 0
-8444 22 0
-8444 -23 0
-8444 -24 0
-8444 7828 0
-5465 -64 0
-5465 -65 0
-5465 66 0
8765 -5465 0
-6639 -22 0
-6639 -23 0
-6639 -24 0
-6639 6551 0
-8862 25 0
-8862 26 0
-8862 -27 0
-8862 7366 0
-2025 43 0
-2025 44 0
-2025 -45 0
7525 -2025 0
-371 -31 0
-371 -32 0
-371 33 0
9237 -371 0
-782 -76 0
-782 -77 0
-782 78 0
9824 -782 0
-7569 40 0
-7569 -41 0
-7569 -42 0
-7569 6953 0
-2013 73 0
-2013 74 0
-2013 -75 0
7491 -2013 0
-6997 -31 0
-6997 32 0
-6997 -33 0
-1433 49 0
-1433 50 0
-1433 -51 0
6603 -1433 0
-2427 -61 0
-2427 62 0
-2427 -63 0
8301 -2427 0
-8696 49 0
-8696 50 0
-8696 -51 0
-8696 7002 0
-9369 -25 0
-9369 26 0
-9369 -27 0
-9369 7983 0
-5686 -67 0
-5686 -68 0
-5686 69 0
9030 -5686 0
-5912 -16 0
-5912 -17 0
-5912 18 0
6220 -5912 0
-5456 -37 0
-5456 -38 0
-5456 39 0
8756 -5456 0
-7587 25 0
-7587 -26 0
-7587 -27 0
-7587 6971 0
-5390 -34 0
-5390 -35 0
-5390 36 0
8690 -5390 0
-8455 55 0
-8455 -56 0
-8455 -57 0
-8455 7839 0
-6370 -67 0
-6370 -68 0
-6370 69 0
7008 -6370 0
-5857 -46 0
-5857 -47 0
-5857 48 0
6099 -5857 0
-5591 -46 0
-5591 -47 0
-5591 -48 0
-5591 5393 0
-6517 -49 0
-6517 -50 0
-6517 -51 0
-6517 6363 0
-7562 19 0
-7562 -20 0
-7562 -21 0
-7562 6946 0
-9361 -70 0
-9361 71 0
-9361 -72 0
-9361 7975 0
-1742 52 0
-1742 -53 0
-1742 -54 0
7880 -1742 0
-557 -61 0
-557 -62 0
-557 63 0
9555 -557 0
-2664 46 0
-2664 -47 0
-2664 -48 0
9396 -2664 0
-926 46 0
-926 -47 0
-926 -48 0
6492 -926 0
-9303 -22 0
-9303 23 0
-9303 -24 0
-9303 7851 0
-7361 -7 0
-7361 8 0
-7361 -9 0
-7361 6063 0
-346 -22 0
-346 -23 0
-346 24 0
9212 -346 0
-2583 -67 0
-2583 68 0
-2583 -69 0
8611 -2583 0
-6196 10 0
-6196 -11 0
-6196 -12 0
-6196 5624 0
-5628 -19 0
-5628 -20 0
-5628 -21 0
-5628 5430 0
-913 73 0
-913 -74 0
-913 -75 0
6457 -913 0
-2701 -25 0
-2701 -26 0
-2701 -27 0
9741 -2701 0
-1701 61 0
-1701 62 0
-1701 -63 0
6915 -1701 0
-732 -58 0
-732 -59 0
-732 -60 0
6540 -732 0
-7227 -70 0
-7227 71 0
-7227 -72 0
-7227 5841 0
-637 -37 0
-637 -38 0
-637 39 0
9657 -637 0
-1008 -28 0
-1008 29 0
-1008 -30 0
5760 -1008 0
-8061 -58 0
-8061 -59 0
-8061 -60 0
-8061 7863 0
-1639 73 0
-1639 74 0
-1639 -75 0
6853 -1639 0
-130 -34 0
-130 -35 0
-130 36 0
8952 -130 0
-9068 49 0
-9068 50 0
-9068 -51 0
-9068 7726 0
-2683 37 0
-2683 -38 0
-2683 -39 0
9437 -2683 0
-6047 25 0
-6047 -26 0
-6047 -27 0
-6047 5409 0
-7066 -46 0
-7066 47 0
-7066 -48 0
-7066 5570 0
-8925 16 0
-8925 17 0
-8925 -18 0
-8925 7495 0
-2297 -67 0
-2297 68 0
-2297 -69 0
8127 -2297 0
-1981 43 0
-1981 44 0
-1981 -45 0
7437 -1981 0
-5600 -73 0
-5600 -74 0
-5600 -75 0
-5600 5402 0
-2501 -19 0
-2501 20 0
-2501 -21 0
8485 -2501 0
-1167 -43 0
-1167 -44 0
-1167 -45 0
7217 -1167 0
-8177 -16 0
-8177 -17 0
-8177 -18 0
-8177 8089 0
-586 -16 0
-586 -17 0
-586 18 0
9584 -586 0
-8363 43 0
-8363 44 0
-8363 -45 0
-8363 6295 0
-1217 -61 0
-1217 62 0
-1217 -63 0
6145 -1217 0
-1397 -73 0
-1397 -74 0
-1397 -75 0
7579 -1397 0
-186 -70 0
-186 -71 0
-186 -72 0
5378 -186 0
-930 58 0
-930 -59 0
-930 -60 0
6496 -930 0
-2668 58 0
-2668 -59 0
-2668 -60 0
9400 -2668 0
-6326 -73 0
-6326 -74 0
-6326 75 0
9516 -6326 0
-6960 -58 0
-6960 59 0
-6960 -60 0
-6960 5420 0
-565 -19 0
-565 -20 0
-565 21 0
9563 -565 0
-2298 -70 0
-2298 71 0
-2298 -72 0
8128 -2298 0
-1843 25 0
-1843 26 0
-1843 -27 0
7255 -1843 0
-9411 -19 0
-9411 20 0
-9411 -21 0
-9411 8047 0
-185 -67 0
-185 -68 0
-185 -69 0
5377 -185 0
-9619 -52 0
-9619 53 0
-9619 -54 0
-9619 8453 0
-6075 40 0
-6075 -41 0
-6075 -42 0
-6075 5437 0
-1281 -55 0
-1281 -56 0
-1281 -57 0
7353 -1281 0
-6822 40 0
-6822 -41 0
-6822 -42 0
-6822 6360 0
-769 -37 0
-769 -38 0
-769 39 0
9811 -769 0
-5550 -52 0
-5550 -53 0
-5550 54 0
8058 -5550 0
-5843 -4 0
-5843 -5 0
-5843 6 0
6085 -5843 0
-6444 -31 0
-6444 -32 0
-6444 33 0
9458 -6444 0
-7071 -61 0
-7071 62 0
-7071 -63 0
-7071 5575 0
-7196 -37 0
-7196 -38 0
-7196 -39 0
-7196 6998 0
-8460 70 0
-8460 -71 0
-8460 -72 0
-8460 7844 0
-2584 -70 0
-2584 71 0
-2584 -72 0
8612 -2584 0
-1757 31 0
-1757 -32 0
-1757 -33 0
7895 -1757 0
-8847 -43 0
-8847 -44 0
-8847 -45 0
-8847 8693 0
-1892 40 0
-1892 41 0
-1892 -42 0
7304 -1892 0
-5544 -34 0
-5544 -35 0
-5544 36 0
8052 -5544 0
-6902 -19 0
-6902 -20 0
-6902 -21 0
-6902 6814 0
-415 31 0
-415 -32 0
-415 -33 0
5453 -415 0
-8482 67 0
-8482 -68 0
-8482 -69 0
-8482 7866 0
-9134 49 0
-9134 -50 0
-9134 -51 0
-9134 8672 0
-1828 -46 0
-1828 -47 0
-1828 -48 0
8428 -1828 0
-7726 46 0
-7726 -47 0
-7726 -48 0
-7726 7198 0
-5675 -34 0
-5675 -35 0
-5675 36 0
9019 -5675 0
-1442 76 0
-1442 77 0
-1442 -78 0
6612 -1442 0
-8507 16 0
-8507 -17 0
-8507 -18 0
-8507 7957 0
-9365 -13 0
-9365 14 0
-9365 -15 0
-9365 7979 0
-773 -49 0
-773 -50 0
-773 51 0
9815 -773 0
-9054 73 0
-9054 74 0
-9054 -75 0
-9054 7690 0
-8629 -49 0
-8629 -50 0
-8629 -51 0
-8629 8475 0
-9682 -43 0
-9682 44 0
-9682 -45 0
-9682 8582 0
-1897 55 0
-1897 56 0
-1897 -57 0
7309 -1897 0
-7583 13 0
-7583 -14 0
-7583 -15 0
-7583 6967 0
-1335 19 0
-1335 -20 0
-1335 -21 0
7077 -1335 0
-2466 -46 0
-2466 47 0
-2466 -48 0
8384 -2466 0
-7866 64 0
-7866 65 0
-7866 -66 0
-1400 16 0
-1400 17 0
-1400 -18 0
6570 -1400 0
-2193 19 0
-2193 -20 0
-2193 -21 0
8727 -2193 0
-8058 -49 0
-8058 -50 0
-8058 -51 0
-8058 7860 0
-6909 -40 0
-6909 -41 0
-6909 -42 0
-6909 6821 0
-1491 -25 0
-1491 -26 0
-1491 -27 0
7783 -1491 0
-136 -52 0
-136 -53 0
-136 54 0
8958 -136 0
-8394 -73 0
-8394 -74 0
-8394 -75 0
-8394 8240 0
-1276 -40 0
-1276 -41 0
-1276 -42 0
7348 -1276 0
-116 -58 0
-116 -59 0
-116 60 0
8938 -116 0
-9714 -73 0
-9714 74 0
-9714 -75 0
-9714 8636 0
-5921 -43 0
-5921 -44 0
-5921 45 0
6229 -5921 0
-8716 49 0
-8716 50 0
-8716 -51 0
-8716 7066 0
-9299 -10 0
-9299 11 0
-9299 -12 0
-9299 7847 0
-5624 -7 0
-5624 -8 0
-5624 -9 0
-5624 5426 0
-712 -64 0
-712 -65 0
-712 66 0
9732 -712 0
-963 -25 0
-963 26 0
-963 -27 0
5715 -963 0
-7987 34 0
-7987 35 0
-7987 -36 0
-7987 5655 0
-1778 28 0
-1778 -29 0
-1778 -30 0
7938 -1778 0
-8657 70 0
-8657 71 0
-8657 -72 0
-8657 7249 0
-6669 -46 0
-6669 -47 0
-6669 48 0
9771 -6669 0
-6907 -34 0
-6907 -35 0
-6907 -36 0
-6907 6819 0
-7731 61 0
-7731 -62 0
-7731 -63 0
-7731 7203 0
-5670 -19 0
-5670 -20 0
-5670 21 0
9014 -5670 0
-9792 43 0
-9792 -44 0
-9792 -45 0
-9792 9374 0
-641 -49 0
-641 -50 0
-641 51 0
9661 -641 0
-1356 16 0
-1356 -17 0
-1356 -18 0
7142 -1356 0
-2687 49 0
-2687 -50 0
-2687 -51 0
9441 -2687 0
-7250 -70 0
-7250 71 0
-7250 -72 0
-7250 5864 0
-6875 70 0
-6875 -71 0
-6875 -72 0
-6875 6479 0
-7119 -4 0
-7119 5 0
-7119 -6 0
-7119 5645 0
-6133 22 0
-6133 -23 0
-6133 -24 0
-6133 5539 0
-7578 67 0
-7578 -68 0
-7578 -69 0
-7578 6962 0
-5878 -49 0
-5878 -50 0
-5878 51 0
8540 -5878 0
-2230 64 0
-2230 -65 0
-2230 -66 0
8786 -2230 0
-5653 -25 0
-5653 -26 0
-5653 -27 0
-1937 -43 0
-1937 -44 0
-1937 -45 0
8647 -1937 0
-5947 -58 0
-5947 -59 0
-5947 60 0
8631 -5947 0
-5677 -40 0
-5677 -41 0
-5677 42 0
9021 -5677 0
-315 -61 0
-315 -62 0
-315 63 0
9181 -315 0
-1007 -25 0
-1007 26 0
-1007 -27 0
5759 -1007 0
-470 64 0
-470 -65 0
-470 -66 0
5530 -470 0
-6040 73 0
-6040 -74 0
-6040 -75 0
-6040 5402 0
-314 -58 0
-314 -59 0
-314 60 0
9180 -314 0
-5434 -28 0
-5434 -29 0
-5434 30 0
-9478 -25 0
-9478 26 0
-9478 -27 0
-9478 8224 0
-5360 -13 0
-5360 -14 0
-5360 15 0
8880 -5360 0
-7670 10 0
-7670 -11 0
-7670 -12 0
-7670 7120 0
-7124 -19 0
-7124 20 0
-7124 -21 0
-7124 5650 0
-2702 -28 0
-2702 -29 0
-2702 -30 0
9742 -2702 0
-2445 -49 0
-2445 50 0
-2445 -51 0
8341 -2445 0
-9112 -49 0
-9112 -50 0
-9112 -51 0
-9112 9024 0
-8154 13 0
-8154 14 0
-8154 -15 0
-8154 5998 0
-9276 -10 0
-9276 11 0
-9276 -12 0
-9276 7824 0
-6656 -73 0
-6656 -74 0
-6656 -75 0
-6656 6568 0
-6471 -43 0
-6471 -44 0
-6471 45 0
7197 -6471 0
-2309 -37 0
-2309 38 0
-2309 -39 0
8139 -2309 0
-9656 -31 0
-9656 32 0
-9656 -33 0
-9656 8534 0
-9633 -25 0
-9633 26 0
-9633 -27 0
-9633 8467 0
-7118 -70 0
-7118 71 0
-7118 -72 0
-7118 5644 0
-6359 -34 0
-6359 -35 0
-6359 36 0
6997 -6359 0
-7095 -70 0
-7095 71 0
-7095 -72 0
-7095 5621 0
-1844 28 0
-1844 29 0
-1844 -30 0
7256 -1844 0
-8170 61 0
-8170 62 0
-8170 -63 0
-8170 6014 0
-9620 -55 0
-9620 56 0
-9620 -57 0
-9620 8454 0
-9611 -28 0
-9611 29 0
-9611 -30 0
-9611 8445 0
-117 -61 0
-117 -62 0
-117 63 0
8939 -117 0
-9427 -67 0
-9427 68 0
-9427 -69 0
-9427 8063 0
-8745 70 0
-8745 71 0
-8745 -72 0
-8745 7117 0
-5844 -7 0
-5844 -8 0
-5844 9 0
6086 -5844 0
-8142 43 0
-8142 44 0
-8142 -45 0
-8142 5964 0
-7549 -43 0
-7549 -44 0
-7549 -45 0
-7549 7395 0
-1609 -49 0
-1609 -50 0
-1609 -51 0
8077 -1609 0
-5376 -61 0
-5376 -62 0
-5376 63 0
8896 -5376 0
-9810 31 0
-9810 -32 0
-9810 -33 0
-9810 9414 0
-8306 73 0
-8306 74 0
-8306 -75 0
-8306 6216 0
-940 -22 0
-940 -23 0
-940 -24 0
6792 -940 0
-6109 16 0
-6109 -17 0
-6109 -18 0
-6109 5493 0
-521 -19 0
-521 -20 0
-521 21 0
9519 -521 0
-9458 -28 0
-9458 -29 0
-9458 -30 0
-9458 9304 0
-7865 61 0
-7865 62 0
-7865 -63 0
-9167 16 0
-9167 -17 0
-9167 -18 0
-9167 8749 0
-9495 -7 0
-9495 8 0
-9495 -9 0
-9495 8241 0
-6661 -22 0
-6661 -23 0
-6661 24 0
9763 -6661 0
-233 -13 0
-233 -14 0
-233 15 0
9077 -233 0
-2422 -46 0
-2422 47 0
-2422 -48 0
8296 -2422 0
-5848 -19 0
-5848 -20 0
-5848 21 0
6090 -5848 0
-6289 -22 0
-6289 -23 0
-6289 -24 0
-6289 6091 0
-1027 -19 0
-1027 20 0
-1027 -21 0
5779 -1027 0
-1113 -13 0
-1113 14 0
-1113 -15 0
5931 -1113 0
-8340 43 0
-8340 44 0
-8340 -45 0
-8340 6272 0
-1492 -28 0
-1492 -29 0
-1492 -30 0
7784 -1492 0
-1079 -43 0
-1079 44 0
-1079 -45 0
5875 -1079 0
-9229 70 0
-9229 -71 0
-9229 -72 0
-9229 8855 0
-2062 22 0
-2062 23 0
-2062 -24 0
7628 -2062 0
-552 -46 0
-552 -47 0
-552 48 0
9550 -552 0
-2669 61 0
-2669 -62 0
-2669 -63 0
9401 -2669 0
-931 61 0
-931 -62 0
-931 -63 0
6497 -931 0
-7642 61 0
-7642 -62 0
-7642 -63 0
-7642 7070 0
-8826 -49 0
-8826 -50 0
-8826 -51 0
-8826 8672 0
-1605 -37 0
-1605 -38 0
-1605 -39 0
8073 -1605 0
-6141 46 0
-6141 -47 0
-6141 -48 0
-6141 5547 0
-6611 -70 0
-6611 -71 0
-6611 72 0
7513 -6611 0
-824 -70 0
-824 -71 0
-824 72 0
9866 -824 0
-7626 13 0
-7626 -14 0
-7626 -15 0
-7626 7054 0
-1662 76 0
-1662 77 0
-1662 -78 0
6876 -1662 0
-8253 40 0
-8253 41 0
-8253 -42 0
-8253 6097 0
-1777 25 0
-1777 -26 0
-1777 -27 0
7937 -1777 0
-823 -67 0
-823 -68 0
-823 69 0
9865 -823 0
-7160 -67 0
-7160 -68 0
-7160 -69 0
-7160 6962 0
-964 -28 0
-964 29 0
-964 -30 0
5716 -964 0
-1216 -58 0
-1216 59 0
-1216 -60 0
6144 -1216 0
-7693 16 0
-7693 -17 0
-7693 -18 0
-7693 7165 0
-8538 40 0
-8538 -41 0
-8538 -42 0
-8538 7988 0
-7120 -7 0
-7120 8 0
-7120 -9 0
-7120 5646 0
-2340 -64 0
-2340 65 0
-2340 -66 0
8170 -2340 0
-7746 -43 0
-7746 -44 0
-7746 -45 0
-7746 7592 0
-1700 58 0
-1700 59 0
-1700 -60 0
6914 -1700 0
-733 -61 0
-733 -62 0
-733 -63 0
6541 -733 0
-1531 13 0
-1531 14 0
-1531 -15 0
6723 -1531 0
-2441 -37 0
-2441 38 0
-2441 -39 0
8337 -2441 0
-6228 37 0
-6228 -38 0
-6228 -39 0
-6228 5656 0
-2313 -49 0
-2313 50 0
-2313 -51 0
8143 -2313 0
-5623 -4 0
-5623 -5 0
-5623 -6 0
-5623 5425 0
-1266 -76 0
-1266 77 0
-1266 -78 0
6260 -1266 0
-6817 25 0
-6817 -26 0
-6817 -27 0
-6817 6355 0
-2279 -13 0
-2279 14 0
-2279 -15 0
8109 -2279 0
-7552 -52 0
-7552 -53 0
-7552 -54 0
-7552 7398 0
-6986 -67 0
-6986 68 0
-6986 -69 0
-6986 5446 0
-8348 67 0
-8348 68 0
-8348 -69 0
-8348 6280 0
-7203 -58 0
-7203 -59 0
-7203 -60 0
-7203 7005 0
-7087 -46 0
-7087 47 0
-7087 -48 0
-7087 5613 0
-8737 46 0
-8737 47 0
-8737 -48 0
-8737 7109 0
-7177 -49 0
-7177 -50 0
-7177 -51 0
-7177 6979 0
-7211 -22 0
-7211 23 0
-7211 -24 0
-7211 5825 0
-1579 25 0
-1579 26 0
-1579 -27 0
6771 -1579 0
-2172 22 0
-2172 -23 0
-2172 -24 0
8706 -2172 0
-6550 -16 0
-6550 -17 0
-6550 18 0
7386 -6550 0
-5463 -58 0
-5463 -59 0
-5463 60 0
8763 -5463 0
-9589 -28 0
-9589 -29 0
-9589 -30 0
-9589 9501 0
-2565 -13 0
-2565 14 0
-2565 -15 0
8593 -2565 0
-2348 -22 0
-2348 23 0
-2348 -24 0
8178 -2348 0
-6065 10 0
-6065 -11 0
-6065 -12 0
-6065 5427 0
-155 -43 0
-155 -44 0
-155 45 0
8977 -155 0
-9598 -55 0
-9598 -56 0
-9598 -57 0
-9598 9510 0
-8079 52 0
-8079 53 0
-8079 -54 0
-8079 6693 0
-5577 -64 0
-5577 -65 0
-5577 66 0
5665 -5577 0
-6052 40 0
-6052 -41 0
-6052 -42 0
-6052 5414 0
-6474 -52 0
-6474 -53 0
-6474 54 0
7200 -6474 0
-8761 49 0
-8761 50 0
-8761 -51 0
-8761 7133 0
-2479 -19 0
-2479 -20 0
-2479 -21 0
9475 -2479 0
-1965 61 0
-1965 62 0
-1965 -63 0
7421 -1965 0
-5505 -49 0
-5505 -50 0
-5505 51 0
7991 -5505 0
-9737 10 0
-9737 -11 0
-9737 -12 0
-9737 9275 0
-6538 -49 0
-6538 -50 0
-6538 51 0
9640 -6538 0
-5652 -22 0
-5652 -23 0
-5652 -24 0
-373 -37 0
-373 -38 0
-373 39 0
9239 -373 0
-9163 67 0
-9163 -68 0
-9163 -69 0
-9163 8701 0
-1667 25 0
-1667 26 0
-1667 -27 0
6881 -1667 0
-9475 -16 0
-9475 17 0
-9475 -18 0
-9475 8221 0
-7948 55 0
-7948 56 0
-7948 -57 0
-7948 6518 0
-7030 -73 0
-7030 74 0
-7030 -75 0
-7030 5512 0
-6203 31 0
-6203 -32 0
-6203 -33 0
-6203 5631 0
-167 -13 0
-167 -14 0
-167 -15 0
5359 -167 0
-7152 -43 0
-7152 -44 0
-7152 -45 0
-7152 6954 0
-8054 -37 0
-8054 -38 0
-8054 -39 0
-8054 7856 0
-1772 76 0
-1772 -77 0
-1772 -78 0
7910 -1772 0
-7939 28 0
-7939 29 0
-7939 -30 0
-7939 6509 0
-7754 -67 0
-7754 -68 0
-7754 -69 0
-7754 7600 0
-7771 -49 0
-7771 -50 0
-7771 -51 0
-7771 7617 0
-7413 -34 0
-7413 35 0
-7413 -36 0
-7413 6159 0
-2524 -22 0
-2524 23 0
-2524 -24 0
8508 -2524 0
-430 76 0
-430 -77 0
-430 -78 0
5468 -430 0
-1555 19 0
-1555 20 0
-1555 -21 0
6747 -1555 0
-656 -28 0
-656 -29 0
-656 30 0
9676 -656 0
-377 -49 0
-377 -50 0
-377 51 0
9243 -377 0
-8402 -28 0
-8402 -29 0
-8402 -30 0
-8402 8248 0
-8584 46 0
-8584 -47 0
-8584 -48 0
-8584 8056 0
-8961 58 0
-8961 59 0
-8961 -60 0
-8961 7553 0
-7624 67 0
-7624 -68 0
-7624 -69 0
-7624 7008 0
-1427 31 0
-1427 32 0
-1427 -33 0
6597 -1427 0
-6468 -34 0
-6468 -35 0
-6468 36 0
7194 -6468 0
-6242 -19 0
-6242 -20 0
-6242 -21 0
-6242 6044 0
-6211 55 0
-6211 -56 0
-6211 -57 0
-6211 5639 0
-9574 -49 0
-9574 50 0
-9574 -51 0
-9574 8408 0
-7696 25 0
-7696 -26 0
-7696 -27 0
-7696 7168 0
-7008 -64 0
-7008 65 0
-7008 -66 0
-7200 -49 0
-7200 -50 0
-7200 -51 0
-7200 7002 0
-6249 -40 0
-6249 -41 0
-6249 -42 0
-6249 6051 0
-7346 -31 0
-7346 32 0
-7346 -33 0
-7346 6048 0
-9447 -64 0
-9447 -65 0
-9447 -66 0
-9447 9293 0
-5718 -31 0
-5718 -32 0
-5718 33 0
8314 -5718 0
-7403 -64 0
-7403 65 0
-7403 -66 0
-7403 6105 0
-7529 -52 0
-7529 -53 0
-7529 -54 0
-7529 7375 0
-8101 49 0
-8101 50 0
-8101 -51 0
-8101 5857 0
-7469 -67 0
-7469 68 0
-7469 -69 0
-7469 6237 0
-5661 -49 0
-5661 -50 0
-5661 -51 0
-1514 28 0
-1514 29 0
-1514 -30 0
6706 -1514 0
-7408 -19 0
-7408 20 0
-7408 -21 0
-7408 6154 0
-6200 22 0
-6200 -23 0
-6200 -24 0
-6200 5628 0
-1093 -19 0
-1093 20 0
-1093 -21 0
5889 -1093 0
-7905 58 0
-7905 59 0
-7905 -60 0
-7905 6475 0
-2272 -58 0
-2272 -59 0
-2272 -60 0
9136 -2272 0
-8150 67 0
-8150 68 0
-8150 -69 0
-8150 5972 0
-9309 -40 0
-9309 41 0
-9309 -42 0
-9309 7857 0
-9438 -37 0
-9438 -38 0
-9438 -39 0
-9438 9284 0
-7380 -64 0
-7380 65 0
-7380 -66 0
-7380 6082 0
-8589 61 0
-8589 -62 0
-8589 -63 0
-8589 8061 0
-7546 -34 0
-7546 -35 0
-7546 -36 0
-7546 7392 0
-6247 -34 0
-6247 -35 0
-6247 -36 0
-6247 6049 0
-8798 28 0
-8798 29 0
-8798 -30 0
-8798 7192 0
-8641 22 0
-8641 23 0
-8641 -24 0
-8641 7233 0
-744 -28 0
-744 -29 0
-744 30 0
9786 -744 0
-9505 -37 0
-9505 38 0
-9505 -39 0
-9505 8251 0
-6155 19 0
-6155 -20 0
-6155 -21 0
-6155 5561 0
-6761 -58 0
-6761 -59 0
-6761 60 0
7773 -6761 0
-9274 -73 0
-9274 74 0
-9274 -75 0
-9274 8108 0
-9221 46 0
-9221 -47 0
-9221 -48 0
-9221 8847 0
-6603 -46 0
-6603 -47 0
-6603 48 0
7505 -6603 0
-7415 -40 0
-7415 41 0
-7415 -42 0
-7415 6161 0
-6112 25 0
-6112 -26 0
-6112 -27 0
-6112 5496 0
-7779 10 0
-7779 11 0
-7779 -12 0
-7779 6547 0
-6859 22 0
-6859 -23 0
-6859 -24 0
-6859 6463 0
-213 -19 0
-213 -20 0
-213 21 0
9057 -213 0
-9170 25 0
-9170 -26 0
-9170 -27 0
-9170 8752 0
-6149 70 0
-6149 -71 0
-6149 -72 0
-6149 5555 0
-6268 -28 0
-6268 -29 0
-6268 -30 0
-6268 6070 0
-2083 19 0
-2083 20 0
-2083 -21 0
7649 -2083 0
-1580 28 0
-1580 29 0
-1580 -30 0
6772 -1580 0
-6945 -13 0
-6945 14 0
-6945 -15 0
-6945 5405 0
-7837 46 0
-7837 47 0
-7837 -48 0
-7837 5439 0
-8850 -52 0
-8850 -53 0
-8850 -54 0
-8850 8696 0
-2238 22 0
-2238 -23 0
-2238 -24 0
8816 -2238 0
-1408 40 0
-1408 41 0
-1408 -42 0
6578 -1408 0
-2599 -49 0
-2599 -50 0
-2599 -51 0
9617 -2599 0
-5918 -34 0
-5918 -35 0
-5918 36 0
6226 -5918 0
-1473 37 0
-1473 38 0
-1473 -39 0
6643 -1473 0
-1268 -16 0
-1268 -17 0
-1268 -18 0
7340 -1268 0
-5384 -16 0
-5384 -17 0
-5384 18 0
8684 -5384 0
-6232 49 0
-6232 -50 0
-6232 -51 0
-6232 5660 0
-5547 -43 0
-5547 -44 0
-5547 45 0
8055 -5547 0
-8080 55 0
-8080 56 0
-8080 -57 0
-8080 6694 0
-9597 -52 0
-9597 -53 0
-9597 -54 0
-9597 9509 0
-8071 28 0
-8071 29 0
-8071 -30 0
-8071 6685 0
-7484 -49 0
-7484 50 0
-7484 -51 0
-7484 6274 0
-5476 -31 0
-5476 -32 0
-5476 33 0
8798 -5476 0
-2000 34 0
-2000 35 0
-2000 -36 0
7478 -2000 0
-7797 64 0
-7797 65 0
-7797 -66 0
-7797 6565 0
-9690 -67 0
-9690 68 0
-9690 -69 0
-9690 8590 0
-2273 -61 0
-2273 -62 0
-2273 -63 0
9137 -2273 0
-1874 52 0
-1874 53 0
-1874 -54 0
7286 -1874 0
-8729 22 0
-8729 23 0
-8729 -24 0
-8729 7101 0
-8180 -25 0
-8180 -26 0
-8180 -27 0
-8180 8092 0
-9283 -31 0
-9283 32 0
-9283 -33 0
-9283 7831 0
-7219 -46 0
-7219 47 0
-7219 -48 0
-7219 5833 0
-9514 -64 0
-9514 65 0
-9514 -66 0
-9514 8260 0
-8366 52 0
-8366 53 0
-8366 -54 0
-8366 6298 0
-7570 43 0
-7570 -44 0
-7570 -45 0
-7570 6954 0
-290 -52 0
-290 -53 0
-290 -54 0
5680 -290 0
-7788 37 0
-7788 38 0
-7788 -39 0
-7788 6556 0
-8314 28 0
-8314 29 0
-8314 -30 0
-8314 6224 0
-8928 25 0
-8928 26 0
-8928 -27 0
-8928 7498 0
-451 73 0
-451 -74 0
-451 -75 0
5489 -451 0
-8125 58 0
-8125 59 0
-8125 -60 0
-8125 5925 0
-2120 64 0
-2120 65 0
-2120 -66 0
7708 -2120 0
-7969 49 0
-7969 50 0
-7969 -51 0
-7969 5637 0
-7079 -22 0
-7079 23 0
-7079 -24 0
-7079 5605 0
-5413 -34 0
-5413 -35 0
-5413 36 0
7855 -5413 0
-9147 19 0
-9147 -20 0
-9147 -21 0
-9147 8685 0
-9530 -49 0
-9530 50 0
-9530 -51 0
-9530 8320 0
-9638 -40 0
-9638 41 0
-9638 -42 0
-9638 8472 0
-7663 58 0
-7663 -59 0
-7663 -60 0
-7663 7113 0
-599 -55 0
-599 -56 0
-599 57 0
9597 -599 0
-7947 52 0
-7947 53 0
-7947 -54 0
-7947 6517 0
-988 -34 0
-988 35 0
-988 -36 0
5740 -988 0
-9429 -10 0
-9429 -11 0
-9429 -12 0
-9429 9275 0
-9800 67 0
-9800 -68 0
-9800 -69 0
-9800 9382 0
-9238 -31 0
-9238 -32 0
-9238 -33 0
-9238 9150 0
-7371 -37 0
-7371 38 0
-7371 -39 0
-7371 6073 0
-1453 43 0
-1453 44 0
-1453 -45 0
6623 -1453 0
-1364 40 0
-1364 -41 0
-1364 -42 0
7150 -1364 0
-7677 31 0
-7677 -32 0
-7677 -33 0
-7677 7127 0
-1668 28 0
-1668 29 0
-1668 -30 0
6882 -1668 0
-9362 -73 0
-9362 74 0
-9362 -75 0
-9362 7976 0
-5762 -31 0
-5762 -32 0
-5762 33 0
8402 -5762 0
-1058 -46 0
-1058 -47 0
-1058 -48 0
6932 -1058 0
-8609 -58 0
-8609 -59 0
-8609 -60 0
-8609 8455 0
-6235 58 0
-6235 -59 0
-6235 -60 0
-6235 5663 0
-9755 64 0
-9755 -65 0
-9755 -66 0
-9755 9293 0
-7685 55 0
-7685 -56 0
-7685 -57 0
-7685 7135 0
-8533 25 0
-8533 -26 0
-8533 -27 0
-8533 7983 0
-655 -25 0
-655 -26 0
-655 27 0
9675 -655 0
-1131 -67 0
-1131 68 0
-1131 -69 0
5949 -1131 0
-9725 -40 0
-9725 -41 0
-9725 -42 0
-9725 9637 0
-8649 46 0
-8649 47 0
-8649 -48 0
-8649 7241 0
-6677 -70 0
-6677 -71 0
-6677 72 0
9779 -6677 0
-1710 -22 0
-1710 -23 0
-1710 -24 0
8200 -1710 0
-1369 55 0
-1369 -56 0
-1369 -57 0
7155 -1369 0
-7007 -61 0
-7007 62 0
-7007 -63 0
-594 -40 0
-594 -41 0
-594 42 0
9592 -594 0
-8360 34 0
-8360 35 0
-8360 -36 0
-8360 6292 0
-1182 -22 0
-1182 23 0
-1182 -24 0
6110 -1182 0
-2006 52 0
-2006 53 0
-2006 -54 0
7484 -2006 0
-8243 10 0
-8243 11 0
-8243 -12 0
-8243 6087 0
-1907 19 0
-1907 20 0
-1907 -21 0
7319 -1907 0
-6595 -22 0
-6595 -23 0
-6595 24 0
7497 -6595 0
-1964 58 0
-1964 59 0
-1964 -60 0
7420 -1964 0
-1749 73 0
-1749 -74 0
-1749 -75 0
7887 -1749 0
-6867 46 0
-6867 -47 0
-6867 -48 0
-6867 6471 0
-7530 -55 0
-7530 -56 0
-7530 -57 0
-7530 7376 0
-1550 70 0
-1550 71 0
-1550 -72 0
6742 -1550 0
-837 -43 0
-837 -44 0
-837 -45 0
6667 -837 0
-251 -67 0
-251 -68 0
-251 69 0
9095 -251 0
-7521 -28 0
-7521 -29 0
-7521 -30 0
-7521 7367 0
-9291 -55 0
-9291 56 0
-9291 -57 0
-9291 7839 0
-9718 -19 0
-9718 -20 0
-9718 -21 0
-9718 9630 0
-8222 16 0
-8222 17 0
-8222 -18 0
-8222 6066 0
-9213 22 0
-9213 -23 0
-9213 -24 0
-9213 8839 0
-2136 46 0
-2136 47 0
-2136 -48 0
7746 -2136 0
-8701 64 0
-8701 65 0
-8701 -66 0
-8701 7007 0
-1647 31 0
-1647 32 0
-1647 -33 0
6861 -1647 0
-7453 -19 0
-7453 20 0
-7453 -21 0
-7453 6221 0
-7874 31 0
-7874 32 0
-7874 -33 0
-7874 6422 0
-1549 67 0
-1549 68 0
-1549 -69 0
6741 -1549 0
-6087 7 0
-6087 -8 0
-6087 -9 0
-7333 -58 0
-7333 -59 0
-7333 -60 0
-7333 7245 0
-743 -25 0
-743 -26 0
-743 27 0
9785 -743 0
-5924 -52 0
-5924 -53 0
-5924 54 0
6232 -5924 0
-257 -19 0
-257 -20 0
-257 21 0
9101 -257 0
-9380 -58 0
-9380 59 0
-9380 -60 0
-9380 7994 0
-1513 25 0
-1513 26 0
-1513 -27 0
6705 -1513 0
-994 -52 0
-994 53 0
-994 -54 0
5746 -994 0
-2595 -37 0
-2595 -38 0
-2595 -39 0
9613 -2595 0
-7674 22 0
-7674 -23 0
-7674 -24 0
-7674 7124 0
-1477 49 0
-1477 50 0
-1477 -51 0
6647 -1477 0
-5960 -28 0
-5960 -29 0
-5960 30 0
6290 -5960 0
-1884 16 0
-1884 17 0
-1884 -18 0
7296 -1884 0
-8844 -34 0
-8844 -35 0
-8844 -36 0
-8844 8690 0
-252 -70 0
-252 -71 0
-252 72 0
9096 -252 0
-9280 -22 0
-9280 23 0
-9280 -24 0
-9280 7828 0
-1868 34 0
-1868 35 0
-1868 -36 0
7280 -1868 0
-7598 58 0
-7598 -59 0
-7598 -60 0
-7598 6982 0
-8510 25 0
-8510 -26 0
-8510 -27 0
-8510 7960 0
-7286 -49 0
-7286 50 0
-7286 -51 0
-7286 5966 0
-6171 67 0
-6171 -68 0
-6171 -69 0
-6171 5577 0
-882 46 0
-882 -47 0
-882 -48 0
6404 -882 0
-9746 37 0
-9746 -38 0
-9746 -39 0
-9746 9284 0
-1132 -70 0
-1132 71 0
-1132 -72 0
5950 -1132 0
-805 -13 0
-805 -14 0
-805 15 0
9847 -805 0
-284 -34 0
-284 -35 0
-284 -36 0
5674 -284 0
-1413 55 0
-1413 56 0
-1413 -57 0
6583 -1413 0
-1251 -31 0
-1251 32 0
-1251 -33 0
6245 -1251 0
-6299 -52 0
-6299 -53 0
-6299 -54 0
-6299 6101 0
-9723 -34 0
-9723 -35 0
-9723 -36 0
-9723 9635 0
-2140 58 0
-2140 59 0
-2140 -60 0
7750 -2140 0
-8575 19 0
-8575 -20 0
-8575 -21 0
-8575 8047 0
-9778 64 0
-9778 -65 0
-9778 -66 0
-9778 9316 0
-7690 70 0
-7690 -71 0
-7690 -72 0
-7690 7140 0
-2328 -28 0
-2328 29 0
-2328 -30 0
8158 -2328 0
-9681 -40 0
-9681 41 0
-9681 -42 0
-9681 8581 0
-9053 70 0
-9053 71 0
-9053 -72 0
-9053 7689 0
-7394 -37 0
-7394 38 0
-7394 -39 0
-7394 6096 0
-1960 46 0
-1960 47 0
-1960 -48 0
7416 -1960 0
-699 -25 0
-699 -26 0
-699 27 0
9719 -699 0
-976 -64 0
-976 65 0
-976 -66 0
5728 -976 0
-6058 58 0
-6058 -59 0
-6058 -60 0
-6058 5420 0
-7860 46 0
-7860 47 0
-7860 -48 0
-9674 -19 0
-9674 20 0
-9674 -21 0
-9674 8574 0
-793 -43 0
-793 -44 0
-793 45 0
9835 -793 0
-1603 -31 0
-1603 -32 0
-1603 -33 0
8071 -1603 0
-9789 34 0
-9789 -35 0
-9789 -36 0
-9789 9371 0
-7433 -28 0
-7433 29 0
-7433 -30 0
-7433 6201 0
-6169 61 0
-6169 -62 0
-6169 -63 0
-6169 5575 0
-2217 25 0
-2217 -26 0
-2217 -27 0
8773 -2217 0
-7613 34 0
-7613 -35 0
-7613 -36 0
-7613 6997 0
-7442 -55 0
-7442 56 0
-7442 -57 0
-7442 6210 0
-1226 -22 0
-1226 23 0
-1226 -24 0
6176 -1226 0
-9713 -70 0
-9713 71 0
-9713 -72 0
-9713 8635 0
-6879 16 0
-6879 -17 0
-6879 -18 0
-6879 6505 0
-8393 -70 0
-8393 -71 0
-8393 -72 0
-8393 8239 0
-819 -55 0
-819 -56 0
-819 57 0
9861 -819 0
-9296 -70 0
-9296 71 0
-9296 -72 0
-9296 7844 0
-1399 13 0
-1399 14 0
-1399 -15 0
6569 -1399 0
-6910 -43 0
-6910 -44 0
-6910 -45 0
-6910 6822 0
-5538 -16 0
-5538 -17 0
-5538 18 0
8046 -5538 0
-1138 -22 0
-1138 23 0
-1138 -24 0
5978 -1138 0
-1632 52 0
-1632 53 0
-1632 -54 0
6846 -1632 0
-6949 -25 0
-6949 26 0
-6949 -27 0
-6949 5409 0
-8658 73 0
-8658 74 0
-8658 -75 0
-8658 7250 0
-6769 -16 0
-6769 -17 0
-6769 -18 0
-6769 6681 0
-5393 -43 0
-5393 -44 0
-5393 45 0
8693 -5393 0
-2608 -76 0
-2608 -77 0
-2608 -78 0
9626 -2608 0
-8012 -49 0
-8012 -50 0
-8012 -51 0
-8012 7814 0
-906 52 0
-906 -53 0
-906 -54 0
6450 -906 0
-7098 -10 0
-7098 11 0
-7098 -12 0
-7098 5624 0
-886 58 0
-886 -59 0
-886 -60 0
6408 -886 0
-1355 13 0
-1355 -14 0
-1355 -15 0
7141 -1355 0
-9791 40 0
-9791 -41 0
-9791 -42 0
-9791 9373 0
-9861 -52 0
-9861 -53 0
-9861 -54 0
-9861 9773 0
-9679 -34 0
-9679 35 0
-9679 -36 0
-9679 8579 0
-1321 43 0
-1321 -44 0
-1321 -45 0
7041 -1321 0
-1390 -52 0
-1390 -53 0
-1390 -54 0
7572 -1390 0
-6876 73 0
-6876 -74 0
-6876 -75 0
-6876 6480 0
-1504 -64 0
-1504 -65 0
-1504 -66 0
7796 -1504 0
-9784 19 0
-9784 -20 0
-9784 -21 0
-9784 9366 0
-2439 -31 0
-2439 32 0
-2439 -33 0
8335 -2439 0
-9257 -22 0
-9257 23 0
-9257 -24 0
-9257 8091 0
-6164 46 0
-6164 -47 0
-6164 -48 0
-6164 5570 0
-5678 -43 0
-5678 -44 0
-5678 45 0
9022 -5678 0
-7823 4 0
-7823 5 0
-7823 -6 0
-7823 5425 0
-7228 -73 0
-7228 74 0
-7228 -75 0
-7228 5842 0
-1486 76 0
-1486 77 0
-1486 -78 0
6656 -1486 0
-1856 64 0
-1856 65 0
-1856 -66 0
7268 -1856 0
-5728 -61 0
-5728 -62 0
-5728 63 0
8324 -5728 0
-7356 -61 0
-7356 62 0
-7356 -63 0
-7356 6058 0
-5568 -37 0
-5568 -38 0
-5568 39 0
5656 -5568 0
-5931 -10 0
-5931 -11 0
-5931 12 0
8615 -5931 0
-5599 -70 0
-5599 -71 0
-5599 -72 0
-5599 5401 0
-6975 -34 0
-6975 35 0
-6975 -36 0
-6975 5435 0
-5835 -49 0
-5835 -50 0
-5835 51 0
8475 -5835 0
-2307 -31 0
-2307 32 0
-2307 -33 0
8137 -2307 0
-9734 -67 0
-9734 -68 0
-9734 -69 0
-9734 9646 0
-6295 -40 0
-6295 -41 0
-6295 -42 0
-6295 6097 0
-2612 22 0
-2612 -23 0
-2612 -24 0
9322 -2612 0
-6384 -49 0
-6384 -50 0
-6384 51 0
9376 -6384 0
-585 -13 0
-585 -14 0
-585 15 0
9583 -585 0
-9353 -46 0
-9353 47 0
-9353 -48 0
-9353 7967 0
-8562 49 0
-8562 -50 0
-8562 -51 0
-8562 8034 0
-6325 -70 0
-6325 -71 0
-6325 72 0
9515 -6325 0
-1062 -58 0
-1062 -59 0
-1062 -60 0
6936 -1062 0
-458 28 0
-458 -29 0
-458 -30 0
5518 -458 0
-8859 16 0
-8859 17 0
-8859 -18 0
-8859 7363 0
-8529 13 0
-8529 -14 0
-8529 -15 0
-8529 7979 0
-1384 -34 0
-1384 -35 0
-1384 -36 0
7566 -1384 0
-8231 43 0
-8231 44 0
-8231 -45 0
-8231 6075 0
-2714 -64 0
-2714 -65 0
-2714 -66 0
9754 -2714 0
-8063 -64 0
-8063 -65 0
-8063 -66 0
-8063 7865 0
-814 -40 0
-814 -41 0
-814 42 0
9856 -814 0
-6846 49 0
-6846 -50 0
-6846 -51 0
-6846 6428 0
-8247 22 0
-8247 23 0
-8247 -24 0
-8247 6091 0
-5712 -13 0
-5712 -14 0
-5712 15 0
8308 -5712 0
-143 -73 0
-143 -74 0
-143 75 0
8965 -143 0
-7856 34 0
-7856 35 0
-7856 -36 0
-1626 34 0
-1626 35 0
-1626 -36 0
6840 -1626 0
-2039 -19 0
-2039 -20 0
-2039 -21 0
8859 -2039 0
-7493 -7 0
-7493 8 0
-7493 -9 0
-7493 6283 0
-8276 49 0
-8276 50 0
-8276 -51 0
-8276 6164 0
-7340 -13 0
-7340 14 0
-7340 -15 0
-7340 6042 0
-900 34 0
-900 -35 0
-900 -36 0
6444 -900 0
-617 -43 0
-617 -44 0
-617 -45 0
6315 -617 0
-7013 -22 0
-7013 23 0
-7013 -24 0
-7013 5495 0
-8591 67 0
-8591 -68 0
-8591 -69 0
-8591 8063 0
-5940 -37 0
-5940 -38 0
-5940 39 0
8624 -5940 0
-5486 -61 0
-5486 -62 0
-5486 63 0
8808 -5486 0
-2327 -25 0
-2327 26 0
-2327 -27 0
8157 -2327 0
-700 -28 0
-700 -29 0
-700 30 0
9720 -700 0
-2574 -40 0
-2574 41 0
-2574 -42 0
8602 -2574 0
-1790 64 0
-1790 -65 0
-1790 -66 0
7950 -1790 0
-8305 70 0
-8305 71 0
-8305 -72 0
-8305 6215 0
-417 37 0
-417 -38 0
-417 -39 0
5455 -417 0
-6216 70 0
-6216 -71 0
-6216 -72 0
-6216 5644 0
-7467 -61 0
-7467 62 0
-7467 -63 0
-7467 6235 0
-1902 70 0
-1902 71 0
-1902 -72 0
7314 -1902 0
-8332 19 0
-8332 20 0
-8332 -21 0
-8332 6264 0
-8692 37 0
-8692 38 0
-8692 -39 0
-8692 6998 0
-234 -16 0
-234 -17 0
-234 18 0
9078 -234 0
-5980 -25 0
-5980 -26 0
-5980 -27 0
-5980 5826 0
-1763 49 0
-1763 -50 0
-1763 -51 0
7901 -1763 0
-9265 -46 0
-9265 47 0
-9265 -48 0
-9265 8099 0
-7441 -52 0
-7441 53 0
-7441 -54 0
-7441 6209 0
-2218 28 0
-2218 -29 0
-2218 -30 0
8774 -2218 0
-5756 -13 0
-5756 -14 0
-5756 15 0
8396 -5756 0
-7743 -34 0
-7743 -35 0
-7743 -36 0
-7743 7589 0
-8339 40 0
-8339 41 0
-8339 -42 0
-8339 6271 0
-9230 73 0
-9230 -74 0
-9230 -75 0
-9230 8856 0
-1063 -61 0
-1063 -62 0
-1063 -63 0
6937 -1063 0
-9232 -13 0
-9232 -14 0
-9232 -15 0
-9232 9144 0
-2288 -40 0
-2288 41 0
-2288 -42 0
8118 -2288 0
-1114 -16 0
-1114 17 0
-1114 -18 0
5932 -1114 0
-6612 -73 0
-6612 -74 0
-6612 75 0
7514 -6612 0
-9644 -58 0
-9644 59 0
-9644 -60 0
-9644 8478 0
-9248 -61 0
-9248 -62 0
-9248 -63 0
-9248 9160 0
-5772 -61 0
-5772 -62 0
-5772 63 0
8412 -5772 0
-477 19 0
-477 -20 0
-477 -21 0
5581 -477 0
-6813 13 0
-6813 -14 0
-6813 -15 0
-6813 6351 0
-6559 -43 0
-6559 -44 0
-6559 45 0
7395 -6559 0
-7462 -46 0
-7462 47 0
-7462 -48 0
-7462 6230 0
-7745 -40 0
-7745 -41 0
-7745 -42 0
-7745 7591 0
-6178 25 0
-6178 -26 0
-6178 -27 0
-6178 5606 0
-8337 34 0
-8337 35 0
-8337 -36 0
-8337 6269 0
-176 -40 0
-176 -41 0
-176 -42 0
5368 -176 0
-7738 -19 0
-7738 -20 0
-7738 -21 0
-7738 7584 0
-5470 -13 0
-5470 -14 0
-5470 15 0
8792 -5470 0
-1532 16 0
-1532 17 0
-1532 -18 0
6724 -1532 0
-5949 -64 0
-5949 -65 0
-5949 66 0
8633 -5949 0
-2268 -46 0
-2268 -47 0
-2268 -48 0
9132 -2268 0
-9853 -28 0
-9853 -29 0
-9853 -30 0
-9853 9765 0
-8430 49 0
-8430 -50 0
-8430 -51 0
-8430 7814 0
-1901 67 0
-1901 68 0
-1901 -69 0
7313 -1901 0
-6069 22 0
-6069 -23 0
-6069 -24 0
-6069 5431 0
-9862 -55 0
-9862 -56 0
-9862 -57 0
-9862 9774 0
-7828 19 0
-7828 20 0
-7828 -21 0
-7828 5430 0
-7256 -25 0
-7256 26 0
-7256 -27 0
-7256 5914 0
-8440 10 0
-8440 -11 0
-8440 -12 0
-8440 7824 0
-5657 -37 0
-5657 -38 0
-5657 -39 0
-6258 -67 0
-6258 -68 0
-6258 -69 0
-6258 6060 0
-635 -31 0
-635 -32 0
-635 33 0
9655 -635 0
-8139 34 0
-8139 35 0
-8139 -36 0
-8139 5961 0
-2681 31 0
-2681 -32 0
-2681 -33 0
9435 -2681 0
-6703 -16 0
-6703 -17 0
-6703 18 0
7671 -6703 0
-9374 -40 0
-9374 41 0
-9374 -42 0
-9374 7988 0
-676 -22 0
-676 -23 0
-676 24 0
9696 -676 0
-9313 -52 0
-9313 53 0
-9313 -54 0
-9313 7861 0
-7868 13 0
-7868 14 0
-7868 -15 0
-7868 6416 0
-7033 -16 0
-7033 17 0
-7033 -18 0
-7033 5537 0
-6039 70 0
-6039 -71 0
-6039 -72 0
-6039 5401 0
-507 -43 0
-507 -44 0
-507 -45 0
6029 -507 0
-6655 -70 0
-6655 -71 0
-6655 -72 0
-6655 6567 0
-2399 -43 0
-2399 44 0
-2399 -45 0
8273 -2399 0
-9769 37 0
-9769 -38 0
-9769 -39 0
-9769 9307 0
-7021 -46 0
-7021 47 0
-7021 -48 0
-7021 5503 0
-192 -22 0
-192 -23 0
-192 24 0
9036 -192 0
-1285 -67 0
-1285 -68 0
-1285 -69 0
7357 -1285 0
-6334 -28 0
-6334 -29 0
-6334 30 0
9304 -6334 0
-887 61 0
-887 -62 0
-887 -63 0
6409 -887 0
-9161 61 0
-9161 -62 0
-9161 -63 0
-9161 8699 0
-181 -55 0
-181 -56 0
-181 -57 0
5373 -181 0
-7824 7 0
-7824 8 0
-7824 -9 0
-7824 5426 0
-7592 40 0
-7592 -41 0
-7592 -42 0
-7592 6976 0
-386 -76 0
-386 -77 0
-386 78 0
9252 -386 0
-7230 -10 0
-7230 11 0
-7230 -12 0
-7230 5844 0
-2293 -55 0
-2293 56 0
-2293 -57 0
8123 -2293 0
-7096 -73 0
-7096 74 0
-7096 -75 0
-7096 5622 0
-8914 49 0
-8914 50 0
-8914 -51 0
-8914 7462 0
-767 -31 0
-767 -32 0
-767 33 0
9809 -767 0
-8134 19 0
-8134 20 0
-8134 -21 0
-8134 5956 0
-421 49 0
-421 -50 0
-421 -51 0
5459 -421 0
-457 25 0
-457 -26 0
-457 -27 0
5517 -457 0
-8746 73 0
-8746 74 0
-8746 -75 0
-8746 7118 0
-1020 -64 0
-1020 65 0
-1020 -66 0
5772 -1020 0
-1286 -70 0
-1286 -71 0
-1286 -72 0
7358 -1286 0
-7855 31 0
-7855 32 0
-7855 -33 0
-7424 -67 0
-7424 68 0
-7424 -69 0
-7424 6170 0
-1759 37 0
-1759 -38 0
-1759 -39 0
7897 -1759 0
-2579 -55 0
-2579 56 0
-2579 -57 0
8607 -2579 0
-2141 61 0
-2141 62 0
-2141 -63 0
7751 -2141 0
-5615 -49 0
-5615 -50 0
-5615 -51 0
-5615 5417 0
-9345 -22 0
-9345 23 0
-9345 -24 0
-9345 7959 0
-9156 46 0
-9156 -47 0
-9156 -48 0
-9156 8694 0
-2553 -43 0
-2553 44 0
-2553 -45 0
8559 -2553 0
-7884 61 0
-7884 62 0
-7884 -63 0
-7884 6432 0
-5424 -67 0
-5424 -68 0
-5424 69 0
7866 -5424 0
-9544 -25 0
-9544 26 0
-9544 -27 0
-9544 8356 0
-8141 40 0
-8141 41 0
-8141 -42 0
-8141 5963 0
-8261 64 0
-8261 65 0
-8261 -66 0
-8261 6105 0
-8683 10 0
-8683 11 0
-8683 -12 0
-8683 6989 0
-6413 -70 0
-6413 -71 0
-6413 72 0
9427 -6413 0
-8554 25 0
-8554 -26 0
-8554 -27 0
-8554 8026 0
-6376 -25 0
-6376 -26 0
-6376 27 0
9368 -6376 0
-7914 16 0
-7914 17 0
-7914 -18 0
-7914 5560 0
-7544 -28 0
-7544 -29 0
-7544 -30 0
-7544 7390 0
-6105 61 0
-6105 -62 0
-6105 -63 0
-591 -31 0
-591 -32 0
-591 33 0
9589 -591 0
-8800 34 0
-8800 35 0
-8800 -36 0
-8800 7194 0
-7639 52 0
-7639 -53 0
-7639 -54 0
-7639 7067 0
-1543 49 0
-1543 50 0
-1543 -51 0
6735 -1543 0
-1016 -52 0
-1016 53 0
-1016 -54 0
5768 -1016 0
-6201 25 0
-6201 -26 0
-6201 -27 0
-6201 5629 0
-6042 10 0
-6042 -11 0
-6042 -12 0
-6042 5404 0
-8049 -22 0
-8049 -23 0
-8049 -24 0
-8049 7851 0
-5408 -19 0
-5408 -20 0
-5408 21 0
7850 -5408 0
-1483 67 0
-1483 68 0
-1483 -69 0
6653 -1483 0
-2301 -13 0
-2301 14 0
-2301 -15 0
8131 -2301 0
-2619 43 0
-2619 -44 0
-2619 -45 0
9329 -2619 0
-5667 -10 0
-5667 -11 0
-5667 12 0
9011 -5667 0
-6819 31 0
-6819 -32 0
-6819 -33 0
-6819 6357 0
-9191 22 0
-9191 -23 0
-9191 -24 0
-9191 8795 0
-6838 25 0
-6838 -26 0
-6838 -27 0
-6838 6420 0
-1254 -40 0
-1254 41 0
-1254 -42 0
6248 -1254 0
-8268 25 0
-8268 26 0
-8268 -27 0
-8268 6156 0
-7201 -52 0
-7201 -53 0
-7201 -54 0
-7201 7003 0
-2488 -46 0
-2488 -47 0
-2488 -48 0
9484 -2488 0
-1484 70 0
-1484 71 0
-1484 -72 0
6654 -1484 0
-1780 34 0
-1780 -35 0
-1780 -36 0
7940 -1780 0
-245 -49 0
-245 -50 0
-245 51 0
9089 -245 0
-1752 16 0
-1752 -17 0
-1752 -18 0
7890 -1752 0
-6466 -28 0
-6466 -29 0
-6466 30 0
7192 -6466 0
-5811 -46 0
-5811 -47 0
-5811 48 0
9155 -5811 0
-8404 -34 0
-8404 -35 0
-8404 -36 0
-8404 8250 0
-1125 -49 0
-1125 50 0
-1125 -51 0
5943 -1125 0
-1650 40 0
-1650 41 0
-1650 -42 0
6864 -1650 0
-6899 -10 0
-6899 -11 0
-6899 -12 0
-6899 6811 0
-610 -22 0
-610 -23 0
-610 -24 0
6308 -610 0
-6989 -7 0
-6989 8 0
-6989 -9 0
-7336 -67 0
-7336 -68 0
-7336 -69 0
-7336 7248 0
-7114 -58 0
-7114 59 0
-7114 -60 0
-7114 5640 0
-7723 37 0
-7723 -38 0
-7723 -39 0
-7723 7195 0
-2343 -73 0
-2343 74 0
-2343 -75 0
8173 -2343 0
-6502 -73 0
-6502 -74 0
-6502 -75 0
-6502 6348 0
-5740 -31 0
-5740 -32 0
-5740 33 0
8358 -5740 0
-9406 -73 0
-9406 74 0
-9406 -75 0
-9406 8042 0
-128 -28 0
-128 -29 0
-128 30 0
8950 -128 0
-9687 -58 0
-9687 59 0
-9687 -60 0
-9687 8587 0
-1010 -34 0
-1010 35 0
-1010 -36 0
5762 -1010 0
-410 16 0
-410 -17 0
-410 -18 0
5448 -410 0
-5692 -16 0
-5692 -17 0
-5692 18 0
8244 -5692 0
-2606 -70 0
-2606 -71 0
-2606 -72 0
9624 -2606 0
-1655 55 0
-1655 56 0
-1655 -57 0
6869 -1655 0
-1564 46 0
-1564 47 0
-1564 -48 0
6756 -1564 0
-8882 16 0
-8882 17 0
-8882 -18 0
-8882 7386 0
-241 -37 0
-241 -38 0
-241 39 0
9085 -241 0
-8035 -49 0
-8035 -50 0
-8035 -51 0
-8035 7837 0
-1405 31 0
-1405 32 0
-1405 -33 0
6575 -1405 0
-1259 -55 0
-1259 56 0
-1259 -57 0
6253 -1259 0
-473 73 0
-473 -74 0
-473 -75 0
5533 -473 0
-1121 -37 0
-1121 38 0
-1121 -39 0
5939 -1121 0
-2053 -61 0
-2053 -62 0
-2053 -63 0
8873 -2053 0
-786 -22 0
-786 -23 0
-786 24 0
9828 -786 0
-6827 55 0
-6827 -56 0
-6827 -57 0
-6827 6365 0
-8410 -52 0
-8410 -53 0
-8410 -54 0
-8410 8256 0
-7844 67 0
-7844 68 0
-7844 -69 0
-7844 5446 0
-1597 -13 0
-1597 -14 0
-1597 -15 0
8065 -1597 0
-1233 -43 0
-1233 44 0
-1233 -45 0
6183 -1233 0
-9797 58 0
-9797 -59 0
-9797 -60 0
-9797 9379 0
-8167 52 0
-8167 53 0
-8167 -54 0
-8167 6011 0
-1361 31 0
-1361 -32 0
-1361 -33 0
7147 -1361 0
-6581 -46 0
-6581 -47 0
-6581 48 0
7461 -6581 0
-5520 -31 0
-5520 -32 0
-5520 33 0
8842 -5520 0
-5908 -73 0
-5908 -74 0
-5908 75 0
8592 -5908 0
-1145 -43 0
-1145 44 0
-1145 -45 0
5985 -1145 0
-8612 -67 0
-8612 -68 0
-8612 -69 0
-8612 8458 0
-1102 -46 0
-1102 47 0
-1102 -48 0
5898 -1102 0
-7063 -37 0
-7063 38 0
-7063 -39 0
-7063 5567 0
-8993 22 0
-8993 23 0
-8993 -24 0
-8993 7585 0
-7666 67 0
-7666 -68 0
-7666 -69 0
-7666 7116 0
-9463 -43 0
-9463 -44 0
-9463 -45 0
-9463 9309 0
-222 -46 0
-222 -47 0
-222 48 0
9066 -222 0
-6816 22 0
-6816 -23 0
-6816 -24 0
-6816 6354 0
-1539 37 0
-1539 38 0
-1539 -39 0
6731 -1539 0
-5942 -43 0
-5942 -44 0
-5942 45 0
8626 -5942 0
-7315 -70 0
-7315 71 0
-7315 -72 0
-7315 6017 0
-8128 67 0
-8128 68 0
-8128 -69 0
-8128 5928 0
-1314 22 0
-1314 -23 0
-1314 -24 0
7034 -1314 0
-2433 -13 0
-2433 14 0
-2433 -15 0
8329 -2433 0
-490 58 0
-490 -59 0
-490 -60 0
5594 -490 0
-5404 -7 0
-5404 -8 0
-5404 9 0
7846 -5404 0
-5373 -52 0
-5373 -53 0
-5373 54 0
8893 -5373 0
-8004 -25 0
-8004 -26 0
-8004 -27 0
-8004 7806 0
-7513 -67 0
-7513 68 0
-7513 -69 0
-7513 6303 0
-8806 52 0
-8806 53 0
-8806 -54 0
-8806 7200 0
-1786 52 0
-1786 -53 0
-1786 -54 0
7946 -1786 0
-2605 -67 0
-2605 -68 0
-2605 -69 0
9623 -2605 0
-6429 -49 0
-6429 -50 0
-6429 51 0
7133 -6429 0
-1288 -76 0
-1288 -77 0
-1288 -78 0
7360 -1288 0
-491 61 0
-491 -62 0
-491 -63 0
5595 -491 0
-9281 -25 0
-9281 26 0
-9281 -27 0
-9281 7829 0
-9845 70 0
-9845 -71 0
-9845 -72 0
-9845 9471 0
-9199 46 0
-9199 -47 0
-9199 -48 0
-9199 8803 0
-7385 -10 0
-7385 11 0
-7385 -12 0
-7385 6087 0
-384 -70 0
-384 -71 0
-384 72 0
9250 -384 0
-2675 13 0
-2675 -14 0
-2675 -15 0
9429 -2675 0
-8571 7 0
-8571 -8 0
-8571 -9 0
-8571 8043 0
-9628 -10 0
-9628 11 0
-9628 -12 0
-9628 8462 0
-2092 46 0
-2092 47 0
-2092 -48 0
7658 -2092 0
-629 -13 0
-629 -14 0
-629 15 0
9649 -629 0
-683 -43 0
-683 -44 0
-683 45 0
9703 -683 0
-6298 -49 0
-6298 -50 0
-6298 -51 0
-6298 6100 0
-6106 64 0
-6106 -65 0
-6106 -66 0
-2710 -52 0
-2710 -53 0
-2710 -54 0
9750 -2710 0
-8842 -28 0
-8842 -29 0
-8842 -30 0
-8842 8688 0
-8964 67 0
-8964 68 0
-8964 -69 0
-8964 7556 0
-7617 46 0
-7617 -47 0
-7617 -48 0
-7617 7001 0
-6276 -52 0
-6276 -53 0
-6276 -54 0
-6276 6078 0
-8776 31 0
-8776 32 0
-8776 -33 0
-8776 7170 0
-2392 -22 0
-2392 23 0
-2392 -24 0
8266 -2392 0
-1430 40 0
-1430 41 0
-1430 -42 0
6600 -1430 0
-7631 28 0
-7631 -29 0
-7631 -30 0
-7631 7059 0
-500 -22 0
-500 -23 0
-500 -24 0
6022 -500 0
-5962 -34 0
-5962 -35 0
-5962 36 0
6292 -5962 0
-7640 55 0
-7640 -56 0
-7640 -57 0
-7640 7068 0
-7675 25 0
-7675 -26 0
-7675 -27 0
-7675 7125 0
-8543 55 0
-8543 -56 0
-8543 -57 0
-8543 7993 0
-1494 -34 0
-1494 -35 0
-1494 -36 0
7786 -1494 0
-5803 -22 0
-5803 -23 0
-5803 24 0
9147 -5803 0
-199 -43 0
-199 -44 0
-199 45 0
9043 -199 0
-2052 -58 0
-2052 -59 0
-2052 -60 0
8872 -2052 0
-966 -34 0
-966 35 0
-966 -36 0
5718 -966 0
-2233 73 0
-2233 -74 0
-2233 -75 0
8789 -2233 0
-6923 -16 0
-6923 17 0
-6923 -18 0
-6923 5691 0
-8456 58 0
-8456 -59 0
-8456 -60 0
-8456 7840 0
-761 -13 0
-761 -14 0
-761 15 0
9803 -761 0
-6764 -67 0
-6764 -68 0
-6764 69 0
7776 -6764 0
-9552 -49 0
-9552 50 0
-9552 -51 0
-9552 8364 0
-1049 -19 0
-1049 -20 0
-1049 -21 0
6923 -1049 0
-8532 22 0
-8532 -23 0
-8532 -24 0
-8532 7982 0
-7908 67 0
-7908 68 0
-7908 -69 0
-7908 6478 0
-8147 58 0
-8147 59 0
-8147 -60 0
-8147 5969 0
-715 -73 0
-715 -74 0
-715 75 0
9735 -715 0
-8358 28 0
-8358 29 0
-8358 -30 0
-8358 6290 0
-8906 25 0
-8906 26 0
-8906 -27 0
-8906 7454 0
-8322 52 0
-8322 53 0
-8322 -54 0
-8322 6232 0
-7072 -64 0
-7072 65 0
-7072 -66 0
-7072 5576 0
-7815 49 0
-7815 50 0
-7815 -51 0
-7815 6363 0
-6964 -70 0
-6964 71 0
-6964 -72 0
-6964 5424 0
-2546 -22 0
-2546 23 0
-2546 -24 0
8552 -2546 0
-1852 52 0
-1852 53 0
-1852 -54 0
7264 -1852 0
-383 -67 0
-383 -68 0
-383 69 0
9249 -383 0
-2704 -34 0
-2704 -35 0
-2704 -36 0
9744 -2704 0
-5988 -49 0
-5988 -50 0
-5988 -51 0
-5988 5834 0
-9001 46 0
-9001 47 0
-9001 -48 0
-9001 7593 0
-5466 -67 0
-5466 -68 0
-5466 69 0
8766 -5466 0
-5559 -10 0
-5559 -11 0
-5559 12 0
5647 -5559 0
-1500 -52 0
-1500 -53 0
-1500 -54 0
7792 -1500 0
-1394 -64 0
-1394 -65 0
-1394 -66 0
7576 -1394 0
-5676 -37 0
-5676 -38 0
-5676 39 0
9020 -5676 0
-6573 -22 0
-6573 -23 0
-6573 24 0
7453 -6573 0
-6083 64 0
-6083 -65 0
-6083 -66 0
-6083 5445 0
-127 -25 0
-127 -26 0
-127 27 0
8949 -127 0
-910 64 0
-910 -65 0
-910 -66 0
6454 -910 0
-2127 19 0
-2127 20 0
-2127 -21 0
7737 -2127 0
-8316 34 0
-8316 35 0
-8316 -36 0
-8316 6226 0
-1636 64 0
-1636 65 0
-1636 -66 0
6850 -1636 0
-8345 58 0
-8345 59 0
-8345 -60 0
-8345 6277 0
-6979 -46 0
-6979 47 0
-6979 -48 0
-6979 5439 0
-1916 46 0
-1916 47 0
-1916 -48 0
7328 -1916 0
-6301 -58 0
-6301 -59 0
-6301 -60 0
-6301 6103 0
-9084 31 0
-9084 32 0
-9084 -33 0
-9084 7764 0
-6917 -64 0
-6917 -65 0
-6917 -66 0
-6917 6829 0
-6810 73 0
-6810 -74 0
-6810 -75 0
-6810 6348 0
-9606 -13 0
-9606 14 0
-9606 -15 0
-9606 8440 0
-6233 52 0
-6233 -53 0
-6233 -54 0
-6233 5661 0
-9321 -16 0
-9321 17 0
-9321 -18 0
-9321 7913 0
-1904 76 0
-1904 77 0
-1904 -78 0
7316 -1904 0
-8535 31 0
-8535 -32 0
-8535 -33 0
-8535 7985 0
-6620 -31 0
-6620 -32 0
-6620 33 0
7544 -6620 0
-8422 25 0
-8422 -26 0
-8422 -27 0
-8422 7806 0
-8159 28 0
-8159 29 0
-8159 -30 0
-8159 6003 0
-5403 -4 0
-5403 -5 0
-5403 6 0
7845 -5403 0
-7751 -58 0
-7751 -59 0
-7751 -60 0
-7751 7597 0
-1435 55 0
-1435 56 0
-1435 -57 0
6605 -1435 0
-9622 -61 0
-9622 62 0
-9622 -63 0
-9622 8456 0
-6908 -37 0
-6908 -38 0
-6908 -39 0
-6908 6820 0
-8168 55 0
-8168 56 0
-8168 -57 0
-8168 6012 0
-266 -46 0
-266 -47 0
-266 48 0
9110 -266 0
-1846 34 0
-1846 35 0
-1846 -36 0
7258 -1846 0
-7264 -49 0
-7264 50 0
-7264 -51 0
-7264 5922 0
-7732 64 0
-7732 -65 0
-7732 -66 0
-7732 7204 0
-7246 -58 0
-7246 59 0
-7246 -60 0
-7246 5860 0
-5374 -55 0
-5374 -56 0
-5374 57 0
8894 -5374 0
-972 -52 0
-972 53 0
-972 -54 0
5724 -972 0
-5916 -28 0
-5916 -29 0
-5916 30 0
6224 -5916 0
-6186 49 0
-6186 -50 0
-6186 -51 0
-6186 5614 0
-5968 -52 0
-5968 -53 0
-5968 54 0
6298 -5968 0
-5685 -64 0
-5685 -65 0
-5685 66 0
9029 -5685 0
-7497 -19 0
-7497 20 0
-7497 -21 0
-7497 6287 0
-5365 -28 0
-5365 -29 0
-5365 30 0
8885 -5365 0
-6270 -34 0
-6270 -35 0
-6270 -36 0
-6270 6072 0
-873 19 0
-873 -20 0
-873 -21 0
6395 -873 0
-2493 -61 0
-2493 -62 0
-2493 -63 0
9489 -2493 0
-1951 19 0
-1951 20 0
-1951 -21 0
7407 -1951 0
-1421 13 0
-1421 14 0
-1421 -15 0
6591 -1421 0
-1920 58 0
-1920 59 0
-1920 -60 0
7332 -1920 0
-9748 43 0
-9748 -44 0
-9748 -45 0
-9748 9286 0
-9566 -25 0
-9566 26 0
-9566 -27 0
-9566 8400 0
-2110 34 0
-2110 35 0
-2110 -36 0
7698 -2110 0
-6951 -31 0
-6951 32 0
-6951 -33 0
-6951 5411 0
-2531 -43 0
-2531 44 0
-2531 -45 0
8515 -2531 0
-8955 40 0
-8955 41 0
-8955 -42 0
-8955 7547 0
-6753 -34 0
-6753 -35 0
-6753 36 0
7765 -6753 0
-7704 49 0
-7704 -50 0
-7704 -51 0
-7704 7176 0
-7833 34 0
-7833 35 0
-7833 -36 0
-7833 5435 0
-9389 -22 0
-9389 23 0
-9389 -24 0
-9389 8025 0
-6485 -22 0
-6485 -23 0
-6485 -24 0
-6485 6331 0
-5433 -25 0
-5433 -26 0
-5433 27 0
-7108 -40 0
-7108 41 0
-7108 -42 0
-7108 5634 0
-998 -64 0
-998 65 0
-998 -66 0
5750 -998 0
-435 25 0
-435 -26 0
-435 -27 0
5473 -435 0
-7846 4 0
-7846 5 0
-7846 -6 0
-6965 -4 0
-6965 5 0
-6965 -6 0
-6965 5425 0
-6255 -58 0
-6255 -59 0
-6255 -60 0
-6255 6057 0
-9417 -37 0
-9417 38 0
-9417 -39 0
-9417 8053 0
-638 -40 0
-638 -41 0
-638 42 0
9658 -638 0
-427 67 0
-427 -68 0
-427 -69 0
5465 -427 0
-7897 34 0
-7897 35 0
-7897 -36 0
-7897 6467 0
-2684 40 0
-2684 -41 0
-2684 -42 0
9438 -2684 0
-8948 19 0
-8948 20 0
-8948 -21 0
-8948 7540 0
-7141 -10 0
-7141 -11 0
-7141 -12 0
-7141 6943 0
-6748 -19 0
-6748 -20 0
-6748 21 0
7760 -6748 0
-5417 -46 0
-5417 -47 0
-5417 48 0
7859 -5417 0
-7899 40 0
-7899 41 0
-7899 -42 0
-7899 6469 0
-9277 -13 0
-9277 14 0
-9277 -15 0
-9277 7825 0
-9010 73 0
-9010 74 0
-9010 -75 0
-9010 7602 0
-428 70 0
-428 -71 0
-428 -72 0
5466 -428 0
-7389 -22 0
-7389 23 0
-7389 -24 0
-7389 6091 0
-6120 49 0
-6120 -50 0
-6120 -51 0
-6120 5504 0
-2588 -16 0
-2588 -17 0
-2588 -18 0
9606 -2588 0
-9178 49 0
-9178 -50 0
-9178 -51 0
-9178 8760 0
-5891 -22 0
-5891 -23 0
-5891 24 0
8575 -5891 0
-1279 -49 0
-1279 -50 0
-1279 -51 0
7351 -1279 0
-6743 -70 0
-6743 -71 0
-6743 72 0
7733 -6743 0
-1891 37 0
-1891 38 0
-1891 -39 0
7303 -1891 0
-2010 64 0
-2010 65 0
-2010 -66 0
7488 -2010 0
-8815 -16 0
-8815 -17 0
-8815 -18 0
-8815 8661 0
-7421 -58 0
-7421 59 0
-7421 -60 0
-7421 6167 0
-270 -58 0
-270 -59 0
-270 60 0
9114 -270 0
-9143 7 0
-9143 -8 0
-9143 -9 0
-9143 8681 0
-6801 46 0
-6801 -47 0
-6801 -48 0
-6801 6339 0
-6755 -40 0
-6755 -41 0
-6755 42 0
7767 -6755 0
-770 -40 0
-770 -41 0
-770 42 0
9812 -770 0
-7892 19 0
-7892 20 0
-7892 -21 0
-7892 6462 0
-8953 34 0
-8953 35 0
-8953 -36 0
-8953 7545 0
-7671 13 0
-7671 -14 0
-7671 -15 0
-7671 7121 0
-1107 -61 0
-1107 62 0
-1107 -63 0
5903 -1107 0
-6229 40 0
-6229 -41 0
-6229 -42 0
-6229 5657 0
-5450 -19 0
-5450 -20 0
-5450 21 0
8750 -5450 0
-9663 -52 0
-9663 53 0
-9663 -54 0
-9663 8541 0
-1466 16 0
-1466 17 0
-1466 -18 0
6636 -1466 0
-5514 -13 0
-5514 -14 0
-5514 15 0
8836 -5514 0
-2179 43 0
-2179 -44 0
-2179 -45 0
8713 -2179 0
-1895 49 0
-1895 50 0
-1895 -51 0
7307 -1895 0
-2285 -31 0
-2285 32 0
-2285 -33 0
8115 -2285 0
-1275 -37 0
-1275 -38 0
-1275 -39 0
7347 -1275 0
-775 -55 0
-775 -56 0
-775 57 0
9817 -775 0
-1770 70 0
-1770 -71 0
-1770 -72 0
7908 -1770 0
-7603 4 0
-7603 -5 0
-7603 -6 0
-7603 6987 0
-8503 70 0
-8503 -71 0
-8503 -72 0
-8503 7931 0
-7568 37 0
-7568 -38 0
-7568 -39 0
-7568 6952 0
-2096 58 0
-2096 59 0
-2096 -60 0
7662 -2096 0
-294 -64 0
-294 -65 0
-294 -66 0
5684 -294 0
-2116 52 0
-2116 53 0
-2116 -54 0
7704 -2116 0
-2355 -43 0
-2355 44 0
-2355 -45 0
8185 -2355 0
-8252 37 0
-8252 38 0
-8252 -39 0
-8252 6096 0
-1529 73 0
-1529 74 0
-1529 -75 0
6721 -1529 0
-6948 -22 0
-6948 23 0
-6948 -24 0
-6948 5408 0
-227 -61 0
-227 -62 0
-227 63 0
9071 -227 0
-759 -73 0
-759 -74 0
-759 75 0
9801 -759 0
-1878 64 0
-1878 65 0
-1878 -66 0
7290 -1878 0
-5750 -61 0
-5750 -62 0
-5750 63 0
8368 -5750 0
-2571 -31 0
-2571 32 0
-2571 -33 0
8599 -2571 0
-8548 70 0
-8548 -71 0
-8548 -72 0
-8548 7998 0
-5457 -40 0
-5457 -41 0
-5457 42 0
8757 -5457 0
-7790 43 0
-7790 44 0
-7790 -45 0
-7790 6558 0
-148 -22 0
-148 -23 0
-148 24 0
8970 -148 0
-9817 52 0
-9817 -53 0
-9817 -54 0
-9817 9421 0
-1569 61 0
-1569 62 0
-1569 -63 0
6761 -1569 0
-6452 -55 0
-6452 -56 0
-6452 57 0
9466 -6452 0
-5455 -34 0
-5455 -35 0
-5455 36 0
8755 -5455 0
-1769 67 0
-1769 -68 0
-1769 -69 0
7907 -1769 0
-7577 64 0
-7577 -65 0
-7577 -66 0
-7577 6961 0
-643 -55 0
-643 -56 0
-643 57 0
9663 -643 0
-7449 -7 0
-7449 8 0
-7449 -9 0
-7449 6217 0
-9208 73 0
-9208 -74 0
-9208 -75 0
-9208 8812 0
-5563 -22 0
-5563 -23 0
-5563 24 0
5651 -5563 0
-6443 -28 0
-6443 -29 0
-6443 30 0
9457 -6443 0
-5734 -13 0
-5734 -14 0
-5734 15 0
8352 -5734 0
-1733 25 0
-1733 -26 0
-1733 -27 0
7871 -1733 0
-2689 55 0
-2689 -56 0
-2689 -57 0
9443 -2689 0
-173 -31 0
-173 -32 0
-173 -33 0
5365 -173 0
-6530 -25 0
-6530 -26 0
-6530 27 0
9632 -6530 0
-9101 -16 0
-9101 -17 0
-9101 -18 0
-9101 9013 0
-6959 -55 0
-6959 56 0
-6959 -57 0
-6959 5419 0
-5530 -61 0
-5530 -62 0
-5530 63 0
8852 -5530 0
-2048 -46 0
-2048 -47 0
-2048 -48 0
8868 -2048 0
-671 -73 0
-671 -74 0
-671 75 0
9691 -671 0
-7197 -40 0
-7197 -41 0
-7197 -42 0
-7197 6999 0
-254 -76 0
-254 -77 0
-254 78 0
9098 -254 0
-7559 10 0
-7559 -11 0
-7559 -12 0
-7559 6943 0
-5899 -46 0
-5899 -47 0
-5899 48 0
8583 -5899 0
-6590 -73 0
-6590 -74 0
-6590 75 0
7470 -6590 0
-8450 40 0
-8450 -41 0
-8450 -42 0
-8450 7834 0
-6966 -7 0
-6966 8 0
-6966 -9 0
-6966 5426 0
-5797 -70 0
-5797 -71 0
-5797 -72 0
-5797 5709 0
-2310 -40 0
-2310 41 0
-2310 -42 0
8140 -2310 0
-9731 -58 0
-9731 -59 0
-9731 -60 0
-9731 9643 0
-8987 -70 0
-8987 -71 0
-8987 -72 0
-8987 8899 0
-1683 73 0
-1683 74 0
-1683 -75 0
6897 -1683 0
-1189 -43 0
-1189 44 0
-1189 -45 0
6117 -1189 0
-8786 61 0
-8786 62 0
-8786 -63 0
-8786 7180 0
-1717 -43 0
-1717 -44 0
-1717 -45 0
8207 -1717 0
-8217 70 0
-8217 71 0
-8217 -72 0
-8217 6831 0
-7325 -34 0
-7325 -35 0
-7325 -36 0
-7325 7237 0
-2447 -55 0
-2447 56 0
-2447 -57 0
8343 -2447 0
-1568 58 0
-1568 59 0
-1568 -60 0
6760 -1568 0
-6793 22 0
-6793 -23 0
-6793 -24 0
-6793 6331 0
-7511 -61 0
-7511 62 0
-7511 -63 0
-7511 6301 0
-1134 -76 0
-1134 77 0
-1134 -78 0
5952 -1134 0
-9440 -43 0
-9440 -44 0
-9440 -45 0
-9440 9286 0
-436 28 0
-436 -29 0
-436 -30 0
5474 -436 0
-5867 -16 0
-5867 -17 0
-5867 18 0
8529 -5867 0
-6074 37 0
-6074 -38 0
-6074 -39 0
-6074 5436 0
-6832 70 0
-6832 -71 0
-6832 -72 0
-6832 6370 0
-830 -22 0
-830 -23 0
-830 -24 0
6660 -830 0
-8518 49 0
-8518 -50 0
-8518 -51 0
-8518 7968 0
-9397 -46 0
-9397 47 0
-9397 -48 0
-9397 8033 0
-7278 -25 0
-7278 26 0
-7278 -27 0
-7278 5958 0
-6493 -46 0
-6493 -47 0
-6493 -48 0
-6493 6339 0
-2097 61 0
-2097 62 0
-2097 -63 0
7663 -2097 0
-6336 -34 0
-6336 -35 0
-6336 36 0
9306 -6336 0
-8687 22 0
-8687 23 0
-8687 -24 0
-8687 6993 0
-486 46 0
-486 -47 0
-486 -48 0
5590 -486 0
-7327 -40 0
-7327 -41 0
-7327 -42 0
-7327 7239 0
-7608 19 0
-7608 -20 0
-7608 -21 0
-7608 6992 0
-9123 16 0
-9123 -17 0
-9123 -18 0
-9123 8661 0
-226 -58 0
-226 -59 0
-226 60 0
9070 -226 0
-1641 13 0
-1641 14 0
-1641 -15 0
6855 -1641 0
-6197 13 0
-6197 -14 0
-6197 -15 0
-6197 5625 0
-7320 -19 0
-7320 -20 0
-7320 -21 0
-7320 7232 0
-1106 -58 0
-1106 59 0
-1106 -60 0
5902 -1106 0
-1245 -13 0
-1245 14 0
-1245 -15 0
6239 -1245 0
-7506 -46 0
-7506 47 0
-7506 -48 0
-7506 6296 0
-1595 73 0
-1595 74 0
-1595 -75 0
6787 -1595 0
-8705 16 0
-8705 17 0
-8705 -18 0
-8705 7055 0
-811 -31 0
-811 -32 0
-811 33 0
9853 -811 0
-1611 -55 0
-1611 -56 0
-1611 -57 0
8079 -1611 0
-8045 -10 0
-8045 -11 0
-8045 -12 0
-8045 7847 0
-7923 43 0
-7923 44 0
-7923 -45 0
-7923 5569 0
-2259 -19 0
-2259 -20 0
-2259 -21 0
9123 -2259 0
-1552 76 0
-1552 77 0
-1552 -78 0
6744 -1552 0
-8770 13 0
-8770 14 0
-8770 -15 0
-8770 7164 0
-9312 -49 0
-9312 50 0
-9312 -51 0
-9312 7860 0
-7655 34 0
-7655 -35 0
-7655 -36 0
-7655 7105 0
-271 -61 0
-271 -62 0
-271 63 0
9115 -271 0
-9655 -28 0
-9655 29 0
-9655 -30 0
-9655 8533 0
-9094 61 0
-9094 62 0
-9094 -63 0
-9094 7774 0
-6342 -52 0
-6342 -53 0
-6342 54 0
9312 -6342 0
-8601 -34 0
-8601 -35 0
-8601 -36 0
-8601 8447 0
-1606 -40 0
-1606 -41 0
-1606 -42 0
8074 -1606 0
-6614 -13 0
-6614 -14 0
-6614 15 0
7538 -6614 0
-9426 -64 0
-9426 65 0
-9426 -66 0
-9426 8062 0
-7476 -25 0
-7476 26 0
-7476 -27 0
-7476 6266 0
-9664 -55 0
-9664 56 0
-9664 -57 0
-9664 8542 0
-7150 -37 0
-7150 -38 0
-7150 -39 0
-7150 6952 0
-7604 7 0
-7604 -8 0
-7604 -9 0
-7604 6988 0
-2245 43 0
-2245 -44 0
-2245 -45 0
8823 -2245 0
-5820 -73 0
-5820 -74 0
-5820 75 0
9164 -5820 0
-8117 34 0
-8117 35 0
-8117 -36 0
-8117 5917 0
-9454 -16 0
-9454 -17 0
-9454 -18 0
-9454 9300 0
-7240 -40 0
-7240 41 0
-7240 -42 0
-7240 5854 0
-2442 -40 0
-2442 41 0
-2442 -42 0
8338 -2442 0
-9522 -25 0
-9522 26 0
-9522 -27 0
-9522 8312 0
-9057 16 0
-9057 17 0
-9057 -18 0
-9057 7715 0
-8119 40 0
-8119 41 0
-8119 -42 0
-8119 5919 0
-7650 19 0
-7650 -20 0
-7650 -21 0
-7650 7100 0
-5654 -28 0
-5654 -29 0
-5654 -30 0
-1734 28 0
-1734 -29 0
-1734 -30 0
7872 -1734 0
-9809 28 0
-9809 -29 0
-9809 -30 0
-9809 9413 0
-6970 -19 0
-6970 20 0
-6970 -21 0
-6970 5430 0
-7582 10 0
-7582 -11 0
-7582 -12 0
-7582 6966 0
-8596 -19 0
-8596 -20 0
-8596 -21 0
-8596 8442 0
-366 -16 0
-366 -17 0
-366 18 0
9232 -366 0
-9818 55 0
-9818 -56 0
-9818 -57 0
-9818 9422 0
-9315 -58 0
-9315 59 0
-9315 -60 0
-9315 7863 0
-6451 -52 0
-6451 -53 0
-6451 54 0
9465 -6451 0
-8603 -40 0
-8603 -41 0
-8603 -42 0
-8603 8449 0
-8188 -49 0
-8188 -50 0
-8188 -51 0
-8188 8100 0
-9612 -31 0
-9612 32 0
-9612 -33 0
-9612 8446 0
-9078 13 0
-9078 14 0
-9078 -15 0
-9078 7758 0
-1921 61 0
-1921 62 0
-1921 -63 0
7333 -1921 0
-2492 -58 0
-2492 -59 0
-2492 -60 0
9488 -2492 0
-2315 -55 0
-2315 56 0
-2315 -57 0
8145 -2315 0
-8936 49 0
-8936 50 0
-8936 -51 0
-8936 7506 0
-7159 -64 0
-7159 -65 0
-7159 -66 0
-7159 6961 0
-6151 7 0
-6151 -8 0
-6151 -9 0
-6151 5557 0
-8112 19 0
-8112 20 0
-8112 -21 0
-8112 5912 0
-8891 43 0
-8891 44 0
-8891 -45 0
-8891 7395 0
-7657 40 0
-7657 -41 0
-7657 -42 0
-7657 7107 0
-6630 -61 0
-6630 -62 0
-6630 63 0
7554 -6630 0
-9364 -10 0
-9364 11 0
-9364 -12 0
-9364 7978 0
-1446 22 0
-1446 23 0
-1446 -24 0
6616 -1446 0
-5701 -43 0
-5701 -44 0
-5701 45 0
8253 -5701 0
-9648 -70 0
-9648 71 0
-9648 -72 0
-9648 8482 0
-7926 52 0
-7926 53 0
-7926 -54 0
-7926 5572 0
-7468 -64 0
-7468 65 0
-7468 -66 0
-7468 6236 0
-9025 49 0
-9025 50 0
-9025 -51 0
-9025 7617 0
-7354 -55 0
-7354 56 0
-7354 -57 0
-7354 6056 0
-579 -61 0
-579 -62 0
-579 63 0
9577 -579 0
-2642 46 0
-2642 -47 0
-2642 -48 0
9352 -2642 0
-9405 -70 0
-9405 71 0
-9405 -72 0
-9405 8041 0
-6501 -70 0
-6501 -71 0
-6501 -72 0
-6501 6347 0
-5717 -28 0
-5717 -29 0
-5717 30 0
8313 -5717 0
-5939 -34 0
-5939 -35 0
-5939 36 0
8623 -5939 0
-5726 -55 0
-5726 -56 0
-5726 57 0
8322 -5726 0
-7381 -67 0
-7381 68 0
-7381 -69 0
-7381 6083 0
-5441 -49 0
-5441 -50 0
-5441 51 0
-6554 -28 0
-6554 -29 0
-6554 30 0
7390 -6554 0
-409 13 0
-409 -14 0
-409 -15 0
5447 -409 0
-7345 -28 0
-7345 29 0
-7345 -30 0
-7345 6047 0
-8708 25 0
-8708 26 0
-8708 -27 0
-8708 7058 0
-8347 64 0
-8347 65 0
-8347 -66 0
-8347 6279 0
-1439 67 0
-1439 68 0
-1439 -69 0
6609 -1439 0
-9126 25 0
-9126 -26 0
-9126 -27 0
-9126 8664 0
-6212 58 0
-6212 -59 0
-6212 -60 0
-6212 5640 0
-2336 -52 0
-2336 53 0
-2336 -54 0
8166 -2336 0
-6988 -4 0
-6988 5 0
-6988 -6 0
-534 -58 0
-534 -59 0
-534 60 0
9532 -534 0
-6915 -58 0
-6915 -59 0
-6915 -60 0
-6915 6827 0
-7744 -37 0
-7744 -38 0
-7744 -39 0
-7744 7590 0
-7275 -16 0
-7275 17 0
-7275 -18 0
-7275 5955 0
-7399 -52 0
-7399 53 0
-7399 -54 0
-7399 6101 0
-1598 -16 0
-1598 -17 0
-1598 -18 0
8066 -1598 0
-1040 -58 0
-1040 59 0
-1040 -60 0
5792 -1040 0
-5907 -70 0
-5907 -71 0
-5907 72 0
8591 -5907 0
-6011 -49 0
-6011 -50 0
-6011 -51 0
-6011 5857 0
-6727 -22 0
-6727 -23 0
-6727 24 0
7717 -6727 0
-1687 19 0
-1687 20 0
-1687 -21 0
6901 -1687 0
-8338 37 0
-8338 38 0
-8338 -39 0
-8338 6270 0
-5870 -25 0
-5870 -26 0
-5870 27 0
8532 -5870 0
-1440 70 0
-1440 71 0
-1440 -72 0
6610 -1440 0
-1382 -28 0
-1382 -29 0
-1382 -30 0
7564 -1382 0
-8979 -46 0
-8979 -47 0
-8979 -48 0
-8979 8891 0
-5698 -34 0
-5698 -35 0
-5698 36 0
8250 -5698 0
-5934 -19 0
-5934 -20 0
-5934 21 0
8618 -5934 0
-5864 -67 0
-5864 -68 0
-5864 69 0
6106 -5864 0
-6363 -46 0
-6363 -47 0
-6363 48 0
7001 -6363 0
-5789 -46 0
-5789 -47 0
-5789 -48 0
-5789 5701 0
-460 34 0
-460 -35 0
-460 -36 0
5520 -460 0
-7753 -64 0
-7753 -65 0
-7753 -66 0
-7753 7599 0
-8888 34 0
-8888 35 0
-8888 -36 0
-8888 7392 0
-8256 49 0
-8256 50 0
-8256 -51 0
-8256 6100 0
-2434 -16 0
-2434 17 0
-2434 -18 0
8330 -2434 0
-7316 -73 0
-7316 74 0
-7316 -75 0
-7316 6018 0
-5683 -58 0
-5683 -59 0
-5683 60 0
9027 -5683 0
-6944 -10 0
-6944 11 0
-6944 -12 0
-6944 5404 0
-5941 -40 0
-5941 -41 0
-5941 42 0
8625 -5941 0
-2515 -61 0
-2515 62 0
-2515 -63 0
8499 -2515 0
-898 28 0
-898 -29 0
-898 -30 0
6442 -898 0
-8209 46 0
-8209 47 0
-8209 -48 0
-8209 6823 0
-374 -40 0
-374 -41 0
-374 42 0
9240 -374 0
-1203 -19 0
-1203 20 0
-1203 -21 0
6131 -1203 0
-1930 -22 0
-1930 -23 0
-1930 -24 0
8640 -1930 0
-6095 31 0
-6095 -32 0
-6095 -33 0
-7103 -25 0
-7103 26 0
-7103 -27 0
-7103 5629 0
-1624 28 0
-1624 29 0
-1624 -30 0
6838 -1624 0
-7881 52 0
-7881 53 0
-7881 -54 0
-7881 6429 0
-1023 -73 0
-1023 74 0
-1023 -75 0
5775 -1023 0
-6161 37 0
-6161 -38 0
-6161 -39 0
-6161 5567 0
-9499 -19 0
-9499 20 0
-9499 -21 0
-9499 8245 0
-8894 52 0
-8894 53 0
-8894 -54 0
-8894 7398 0
-5432 -22 0
-5432 -23 0
-5432 24 0
-353 -43 0
-353 -44 0
-353 45 0
9219 -353 0
-2330 -34 0
-2330 35 0
-2330 -36 0
8160 -2330 0
-5483 -52 0
-5483 -53 0
-5483 54 0
8805 -5483 0
-5704 -52 0
-5704 -53 0
-5704 54 0
8256 -5704 0
-8673 49 0
-8673 50 0
-8673 -51 0
-8673 6979 0
-379 -55 0
-379 -56 0
-379 57 0
9245 -379 0
-2300 -76 0
-2300 77 0
-2300 -78 0
8130 -2300 0
-9590 -31 0
-9590 -32 0
-9590 -33 0
-9590 9502 0
-6414 -73 0
-6414 -74 0
-6414 75 0
9428 -6414 0
-9781 10 0
-9781 -11 0
-9781 -12 0
-9781 9363 0
-9448 -67 0
-9448 -68 0
-9448 -69 0
-9448 9294 0
-8140 37 0
-8140 38 0
-8140 -39 0
-8140 5962 0
-9162 64 0
-9162 -65 0
-9162 -66 0
-9162 8700 0
-1974 22 0
-1974 23 0
-1974 -24 0
7430 -1974 0
-1793 73 0
-1793 -74 0
-1793 -75 0
7953 -1793 0
-8398 -16 0
-8398 -17 0
-8398 -18 0
-8398 8244 0
-7444 -61 0
-7444 62 0
-7444 -63 0
-7444 6212 0
-5573 -52 0
-5573 -53 0
-5573 54 0
5661 -5573 0
-9519 -16 0
-9519 17 0
-9519 -18 0
-9519 8309 0
-2586 -76 0
-2586 77 0
-2586 -78 0
8614 -2586 0
-9060 25 0
-9060 26 0
-9060 -27 0
-9060 7718 0
-301 -19 0
-301 -20 0
-301 21 0
9167 -301 0
-2302 -16 0
-2302 17 0
-2302 -18 0
8132 -2302 0
-8487 22 0
-8487 -23 0
-8487 -24 0
-8487 7915 0
-1160 -22 0
-1160 -23 0
-1160 -24 0
7210 -1160 0
-8461 4 0
-8461 -5 0
-8461 -6 0
-8461 7845 0
-7428 -13 0
-7428 14 0
-7428 -15 0
-7428 6196 0
-5769 -52 0
-5769 -53 0
-5769 54 0
8409 -5769 0
-8259 58 0
-8259 59 0
-8259 -60 0
-8259 6103 0
-7940 31 0
-7940 32 0
-7940 -33 0
-7940 6510 0
-9245 -52 0
-9245 -53 0
-9245 -54 0
-9245 9157 0
-7140 -67 0
-7140 68 0
-7140 -69 0
-7140 5666 0
-9671 -10 0
-9671 11 0
-9671 -12 0
-9671 8571 0
-7920 34 0
-7920 35 0
-7920 -36 0
-7920 5566 0
-6339 -43 0
-6339 -44 0
-6339 45 0
9309 -6339 0
-188 -76 0
-188 -77 0
-188 -78 0
5380 -188 0
-6219 10 0
-6219 -11 0
-6219 -12 0
-6219 5647 0
-8794 16 0
-8794 17 0
-8794 -18 0
-8794 7188 0
-7473 -16 0
-7473 17 0
-7473 -18 0
-7473 6263 0
-1349 61 0
-1349 -62 0
-1349 -63 0
7091 -1349 0
-1751 13 0
-1751 -14 0
-1751 -15 0
7889 -1751 0
-8149 64 0
-8149 65 0
-8149 -66 0
-8149 5971 0
-466 52 0
-466 -53 0
-466 -54 0
5526 -466 0
-2207 61 0
-2207 -62 0
-2207 -63 0
8741 -2207 0
-8971 -22 0
-8971 -23 0
-8971 -24 0
-8971 8883 0
-5725 -52 0
-5725 -53 0
-5725 54 0
8321 -5725 0
-9292 -58 0
-9292 59 0
-9292 -60 0
-9292 7840 0
-9153 37 0
-9153 -38 0
-9153 -39 0
-9153 8691 0
-7586 22 0
-7586 -23 0
-7586 -24 0
-7586 6970 0
-7522 -31 0
-7522 -32 0
-7522 -33 0
-7522 7368 0
-239 -31 0
-239 -32 0
-239 33 0
9083 -239 0
-1348 58 0
-1348 -59 0
-1348 -60 0
7090 -1348 0
-5781 -22 0
-5781 -23 0
-5781 -24 0
-5781 5693 0
-947 -43 0
-947 -44 0
-947 -45 0
6799 -947 0
-1660 70 0
-1660 71 0
-1660 -72 0
6874 -1660 0
-2601 -55 0
-2601 -56 0
-2601 -57 0
9619 -2601 0
-7365 -19 0
-7365 20 0
-7365 -21 0
-7365 6067 0
-8818 -25 0
-8818 -26 0
-8818 -27 0
-8818 8664 0
-6735 -46 0
-6735 -47 0
-6735 48 0
7725 -6735 0
-1300 46 0
-1300 -47 0
-1300 -48 0
7020 -1300 0
-7353 -52 0
-7353 53 0
-7353 -54 0
-7353 6055 0
-2206 58 0
-2206 -59 0
-2206 -60 0
8740 -2206 0
-9777 61 0
-9777 -62 0
-9777 -63 0
-9777 9315 0
-9689 -64 0
-9689 65 0
-9689 -66 0
-9689 8589 0
-5388 -28 0
-5388 -29 0
-5388 30 0
8688 -5388 0
-2226 52 0
-2226 -53 0
-2226 -54 0
8782 -2226 0
-7798 67 0
-7798 68 0
-7798 -69 0
-7798 6566 0
-8055 -40 0
-8055 -41 0
-8055 -42 0
-8055 7857 0
-103 -19 0
-103 -20 0
-103 21 0
8925 -103 0
-2069 43 0
-2069 44 0
-2069 -45 0
7635 -2069 0
-6170 64 0
-6170 -65 0
-6170 -66 0
-6170 5576 0
-1264 -70 0
-1264 71 0
-1264 -72 0
6258 -1264 0
-6062 70 0
-6062 -71 0
-6062 -72 0
-6062 5424 0
-1072 -22 0
-1072 23 0
-1072 -24 0
5868 -1072 0
-1859 73 0
-1859 74 0
-1859 -75 0
7271 -1859 0
-6809 70 0
-6809 -71 0
-6809 -72 0
-6809 6347 0
-1474 40 0
-1474 41 0
-1474 -42 0
6644 -1474 0
-1407 37 0
-1407 38 0
-1407 -39 0
6577 -1407 0
-9368 -22 0
-9368 23 0
-9368 -24 0
-9368 7982 0
-708 -52 0
-708 -53 0
-708 54 0
9728 -708 0
-7686 58 0
-7686 -59 0
-7686 -60 0
-7686 7136 0
-8697 52 0
-8697 53 0
-8697 -54 0
-8697 7003 0
-8131 10 0
-8131 11 0
-8131 -12 0
-8131 5953 0
-8201 22 0
-8201 23 0
-8201 -24 0
-8201 6815 0
-6264 -16 0
-6264 -17 0
-6264 -18 0
-6264 6066 0
-1119 -31 0
-1119 32 0
-1119 -33 0
5937 -1119 0
-90 -46 0
-90 -47 0
-90 48 0
8912 -90 0
-9790 37 0
-9790 -38 0
-9790 -39 0
-9790 9372 0
-9407 -7 0
-9407 8 0
-9407 -9 0
-9407 8043 0
-140 -64 0
-140 -65 0
-140 66 0
8962 -140 0
-8466 19 0
-8466 -20 0
-8466 -21 0
-8466 7850 0
-1381 -25 0
-1381 -26 0
-1381 -27 0
7563 -1381 0
-6096 34 0
-6096 -35 0
-6096 -36 0
-1263 -67 0
-1263 68 0
-1263 -69 0
6257 -1263 0
-7597 55 0
-7597 -56 0
-7597 -57 0
-7597 6981 0
-1363 37 0
-1363 -38 0
-1363 -39 0
7149 -1363 0
-8445 25 0
-8445 -26 0
-8445 -27 0
-8445 7829 0
-6081 58 0
-6081 -59 0
-6081 -60 0
-6081 5443 0
-9799 64 0
-9799 -65 0
-9799 -66 0
-9799 9381 0
-9772 46 0
-9772 -47 0
-9772 -48 0
-9772 9310 0
-9379 -55 0
-9379 56 0
-9379 -57 0
-9379 7993 0
-826 -76 0
-826 -77 0
-826 78 0
9868 -826 0
-7882 55 0
-7882 56 0
-7882 -57 0
-7882 6430 0
-8310 16 0
-8310 17 0
-8310 -18 0
-8310 6220 0
-7187 -10 0
-7187 -11 0
-7187 -12 0
-7187 6989 0
-1623 25 0
-1623 26 0
-1623 -27 0
6837 -1623 0
-2717 -73 0
-2717 -74 0
-2717 -75 0
9757 -2717 0
-6303 -64 0
-6303 -65 0
-6303 -66 0
-6303 6105 0
-9680 -37 0
-9680 38 0
-9680 -39 0
-9680 8580 0
-9563 -16 0
-9563 17 0
-9563 -18 0
-9563 8397 0
-7873 28 0
-7873 29 0
-7873 -30 0
-7873 6421 0
-597 -49 0
-597 -50 0
-597 51 0
9595 -597 0
-1659 67 0
-1659 68 0
-1659 -69 0
6873 -1659 0
-897 25 0
-897 -26 0
-897 -27 0
6441 -897 0
-1537 31 0
-1537 32 0
-1537 -33 0
6729 -1537 0
-8462 7 0
-8462 -8 0
-8462 -9 0
-8462 7846 0
-8226 28 0
-8226 29 0
-8226 -30 0
-8226 6070 0
-9848 -13 0
-9848 -14 0
-9848 -15 0
-9848 9760 0
-8072 31 0
-8072 32 0
-8072 -33 0
-8072 6686 0
-9515 -67 0
-9515 68 0
-9515 -69 0
-9515 8261 0
-6527 -16 0
-6527 -17 0
-6527 18 0
9629 -6527 0
-9846 73 0
-9846 -74 0
-9846 -75 0
-9846 9472 0
-9104 -25 0
-9104 -26 0
-9104 -27 0
-9104 9016 0
-5475 -28 0
-5475 -29 0
-5475 30 0
8797 -5475 0
-2514 -58 0
-2514 59 0
-2514 -60 0
8498 -2514 0
-6100 46 0
-6100 -47 0
-6100 -48 0
-9371 -31 0
-9371 32 0
-9371 -33 0
-9371 7985 0
-630 -16 0
-630 -17 0
-630 18 0
9650 -630 0
-1367 49 0
-1367 -50 0
-1367 -51 0
7153 -1367 0
-702 -34 0
-702 -35 0
-702 36 0
9722 -702 0
-7735 -10 0
-7735 -11 0
-7735 -12 0
-7735 7581 0
-5484 -55 0
-5484 -56 0
-5484 57 0
8806 -5484 0
-2676 16 0
-2676 -17 0
-2676 -18 0
9430 -2676 0
-7589 31 0
-7589 -32 0
-7589 -33 0
-7589 6973 0
-9756 67 0
-9756 -68 0
-9756 -69 0
-9756 9294 0
-7459 -37 0
-7459 38 0
-7459 -39 0
-7459 6227 0
-719 -19 0
-719 -20 0
-719 -21 0
6527 -719 0
-9486 -49 0
-9486 50 0
-9486 -51 0
-9486 8232 0
-593 -37 0
-593 -38 0
-593 39 0
9591 -593 0
-9308 -37 0
-9308 38 0
-9308 -39 0
-9308 7856 0
-979 -73 0
-979 74 0
-979 -75 0
5731 -979 0
-2220 34 0
-2220 -35 0
-2220 -36 0
8776 -2220 0
-535 -61 0
-535 -62 0
-535 63 0
9533 -535 0
-9237 -28 0
-9237 -29 0
-9237 -30 0
-9237 9149 0
-1507 -73 0
-1507 -74 0
-1507 -75 0
7799 -1507 0
-5761 -28 0
-5761 -29 0
-5761 30 0
8401 -5761 0
-5644 -67 0
-5644 -68 0
-5644 -69 0
-5644 5446 0
-7991 46 0
-7991 47 0
-7991 -48 0
-7991 5659 0
-1041 -61 0
-1041 62 0
-1041 -63 0
5793 -1041 0
-1479 55 0
-1479 56 0
-1479 -57 0
6649 -1479 0
-5770 -55 0
-5770 -56 0
-5770 57 0
8410 -5770 0
-762 -16 0
-762 -17 0
-762 18 0
9804 -762 0
-9246 -55 0
-9246 -56 0
-9246 -57 0
-9246 9158 0
-2655 19 0
-2655 -20 0
-2655 -21 0
9387 -2655 0
-7235 -25 0
-7235 26 0
-7235 -27 0
-7235 5849 0
-917 19 0
-917 -20 0
-917 -21 0
6483 -917 0
-578 -58 0
-578 -59 0
-578 60 0
9576 -578 0
-8495 46 0
-8495 -47 0
-8495 -48 0
-8495 7923 0
-8329 10 0
-8329 11 0
-8329 -12 0
-8329 6261 0
-9864 -61 0
-9864 -62 0
-9864 -63 0
-9864 9776 0
-5956 -16 0
-5956 -17 0
-5956 18 0
6286 -5956 0
-1411 49 0
-1411 50 0
-1411 -51 0
6581 -1411 0
-6078 49 0
-6078 -50 0
-6078 -51 0
-6078 5440 0
-2596 -40 0
-2596 -41 0
-2596 -42 0
9614 -2596 0
-1746 64 0
-1746 -65 0
-1746 -66 0
7884 -1746 0
-8319 43 0
-8319 44 0
-8319 -45 0
-8319 6229 0
-7782 19 0
-7782 20 0
-7782 -21 0
-7782 6550 0
-658 -34 0
-658 -35 0
-658 36 0
9678 -658 0
-6397 -22 0
-6397 -23 0
-6397 24 0
9411 -6397 0
-9508 -46 0
-9508 47 0
-9508 -48 0
-9508 8254 0
-8441 13 0
-8441 -14 0
-8441 -15 0
-8441 7825 0
-8903 16 0
-8903 17 0
-8903 -18 0
-8903 7451 0
-1465 13 0
-1465 14 0
-1465 -15 0
6635 -1465 0
-2319 -67 0
-2319 68 0
-2319 -69 0
8149 -2319 0
-6354 -19 0
-6354 -20 0
-6354 21 0
6992 -6354 0
-7191 -22 0
-7191 -23 0
-7191 -24 0
-7191 6993 0
-606 -76 0
-606 -77 0
-606 78 0
9604 -606 0
-6812 10 0
-6812 -11 0
-6812 -12 0
-6812 6350 0
-8504 73 0
-8504 -74 0
-8504 -75 0
-8504 7932 0
-7405 -10 0
-7405 11 0
-7405 -12 0
-7405 6151 0
-5458 -43 0
-5458 -44 0
-5458 45 0
8758 -5458 0
-7789 40 0
-7789 41 0
-7789 -42 0
-7789 6557 0
-2510 -46 0
-2510 47 0
-2510 -48 0
8494 -2510 0
-817 -49 0
-817 -50 0
-817 51 0
9859 -817 0
-6926 -25 0
-6926 26 0
-6926 -27 0
-6926 5694 0
-9837 46 0
-9837 -47 0
-9837 -48 0
-9837 9463 0
-746 -34 0
-746 -35 0
-746 36 0
9788 -746 0
-7787 34 0
-7787 35 0
-7787 -36 0
-7787 6555 0
-7044 -49 0
-7044 50 0
-7044 -51 0
-7044 5548 0
-9513 -61 0
-9513 62 0
-9513 -63 0
-9513 8259 0
-574 -46 0
-574 -47 0
-574 48 0
9572 -574 0
-2647 61 0
-2647 -62 0
-2647 -63 0
9357 -2647 0
-6273 -43 0
-6273 -44 0
-6273 -45 0
-6273 6075 0
-7977 4 0
-7977 5 0
-7977 -6 0
-7977 5645 0
-8059 -52 0
-8059 -53 0
-8059 -54 0
-8059 7861 0
-9207 70 0
-9207 -71 0
-9207 -72 0
-9207 8811 0
-1516 34 0
-1516 35 0
-1516 -36 0
6708 -1516 0
-6049 31 0
-6049 -32 0
-6049 -33 0
-6049 5411 0
-6714 -49 0
-6714 -50 0
-6714 51 0
7682 -6714 0
-7157 -58 0
-7157 -59 0
-7157 -60 0
-7157 6959 0
-7847 7 0
-7847 8 0
-7847 -9 0
-8581 37 0
-8581 -38 0
-8581 -39 0
-8581 8053 0
-1865 25 0
-1865 26 0
-1865 -27 0
7277 -1865 0
-6239 -10 0
-6239 -11 0
-6239 -12 0
-6239 6041 0
-6206 40 0
-6206 -41 0
-6206 -42 0
-6206 5634 0
-2320 -70 0
-2320 71 0
-2320 -72 0
8150 -2320 0
-7129 -34 0
-7129 35 0
-7129 -36 0
-7129 5655 0
-281 -25 0
-281 -26 0
-281 -27 0
5671 -281 0
-5542 -28 0
-5542 -29 0
-5542 30 0
8050 -5542 0
-8693 40 0
-8693 41 0
-8693 -42 0
-8693 6999 0
-1805 43 0
-1805 -44 0
-1805 -45 0
8009 -1805 0
-9733 -64 0
-9733 -65 0
-9733 -66 0
-9733 9645 0
-94 -58 0
-94 -59 0
-94 60 0
8916 -94 0
-5965 -43 0
-5965 -44 0
-5965 45 0
6295 -5965 0
-8956 43 0
-8956 44 0
-8956 -45 0
-8956 7548 0
-1422 16 0
-1422 17 0
-1422 -18 0
6592 -1422 0
-9747 40 0
-9747 -41 0
-9747 -42 0
-9747 9285 0
-859 43 0
-859 -44 0
-859 -45 0
6381 -859 0
-1819 -19 0
-1819 -20 0
-1819 -21 0
8419 -1819 0
-7934 13 0
-7934 14 0
-7934 -15 0
-7934 6504 0
-7434 -31 0
-7434 32 0
-7434 -33 0
-7434 6202 0
-1615 -67 0
-1615 -68 0
-1615 -69 0
8083 -1615 0
-2452 -70 0
-2452 71 0
-2452 -72 0
8348 -2452 0
-9600 -61 0
-9600 -62 0
-9600 -63 0
-9600 9512 0
-1304 58 0
-1304 -59 0
-1304 -60 0
7024 -1304 0
-1420 76 0
-1420 77 0
-1420 -78 0
6590 -1420 0
-2202 46 0
-2202 -47 0
-2202 -48 0
8736 -2202 0
-664 -52 0
-664 -53 0
-664 54 0
9684 -664 0
-6057 55 0
-6057 -56 0
-6057 -57 0
-6057 5419 0
-7231 -13 0
-7231 14 0
-7231 -15 0
-7231 5845 0
-9324 -25 0
-9324 26 0
-9324 -27 0
-9324 7916 0
-2457 -19 0
-2457 20 0
-2457 -21 0
8375 -2457 0
-1344 46 0
-1344 -47 0
-1344 -48 0
7086 -1344 0
-9740 19 0
-9740 -20 0
-9740 -21 0
-9740 9278 0
-8419 16 0
-8419 -17 0
-8419 -18 0
-8419 7803 0
-1997 25 0
-1997 26 0
-1997 -27 0
7475 -1997 0
-7900 43 0
-7900 44 0
-7900 -45 0
-7900 6470 0
-9009 70 0
-9009 71 0
-9009 -72 0
-9009 7601 0
-9584 -13 0
-9584 -14 0
-9584 -15 0
-9584 9496 0
-2451 -67 0
-2451 68 0
-2451 -69 0
8347 -2451 0
-1376 76 0
-1376 -77 0
-1376 -78 0
7162 -1376 0
-9779 67 0
-9779 -68 0
-9779 -69 0
-9779 9317 0
-6744 -73 0
-6744 -74 0
-6744 75 0
7734 -6744 0
-2587 -13 0
-2587 -14 0
-2587 -15 0
9605 -2587 0
-2370 -22 0
-2370 -23 0
-2370 -24 0
9256 -2370 0
-7602 70 0
-7602 -71 0
-7602 -72 0
-7602 6986 0
-752 -52 0
-752 -53 0
-752 54 0
9794 -752 0
-9724 -37 0
-9724 -38 0
-9724 -39 0
-9724 9636 0
-9384 -70 0
-9384 71 0
-9384 -72 0
-9384 7998 0
-6350 -7 0
-6350 -8 0
-6350 9 0
6988 -6350 0
-448 64 0
-448 -65 0
-448 -66 0
5486 -448 0
-5853 -34 0
-5853 -35 0
-5853 36 0
6095 -5853 0
-7299 -22 0
-7299 23 0
-7299 -24 0
-7299 6001 0
-6756 -43 0
-6756 -44 0
-6756 45 0
7768 -6756 0
-1616 -70 0
-1616 -71 0
-1616 -72 0
8084 -1616 0
-813 -37 0
-813 -38 0
-813 39 0
9855 -813 0
-2123 73 0
-2123 74 0
-2123 -75 0
7711 -2123 0
-985 -25 0
-985 26 0
-985 -27 0
5737 -985 0
-7950 61 0
-7950 62 0
-7950 -63 0
-7950 6520 0
-1522 52 0
-1522 53 0
-1522 -54 0
6714 -1522 0
-6046 22 0
-6046 -23 0
-6046 -24 0
-6046 5408 0
-2157 -43 0
-2157 -44 0
-2157 -45 0
8999 -2157 0
-9745 34 0
-9745 -35 0
-9745 -36 0
-9745 9283 0
-1273 -31 0
-1273 -32 0
-1273 -33 0
7345 -1273 0
-7713 7 0
-7713 -8 0
-7713 -9 0
-7713 7185 0
-2287 -37 0
-2287 38 0
-2287 -39 0
8117 -2287 0
-9317 -64 0
-9317 65 0
-9317 -66 0
-9317 7865 0
-9829 22 0
-9829 -23 0
-9829 -24 0
-9829 9455 0
-780 -70 0
-780 -71 0
-780 72 0
9822 -780 0
-8870 49 0
-8870 50 0
-8870 -51 0
-8870 7374 0
-397 -43 0
-397 -44 0
-397 -45 0
5809 -397 0
-5819 -70 0
-5819 -71 0
-5819 72 0
9163 -5819 0
-1765 55 0
-1765 -56 0
-1765 -57 0
7903 -1765 0
-2573 -37 0
-2573 38 0
-2573 -39 0
8601 -2573 0
-2693 67 0
-2693 -68 0
-2693 -69 0
9447 -2693 0
-7099 -13 0
-7099 14 0
-7099 -15 0
-7099 5625 0
-2018 22 0
-2018 23 0
-2018 -24 0
7518 -2018 0
-418 40 0
-418 -41 0
-418 -42 0
5456 -418 0
-6835 16 0
-6835 -17 0
-6835 -18 0
-6835 6417 0
-7532 -61 0
-7532 -62 0
-7532 -63 0
-7532 7378 0
-8475 46 0
-8475 -47 0
-8475 -48 0
-8475 7859 0
-8265 16 0
-8265 17 0
-8265 -18 0
-8265 6153 0
-1588 52 0
-1588 53 0
-1588 -54 0
6780 -1588 0
-647 -67 0
-647 -68 0
-647 69 0
9667 -647 0
-1305 61 0
-1305 -62 0
-1305 -63 0
7025 -1305 0
-1676 52 0
-1676 53 0
-1676 -54 0
6890 -1676 0
-8120 43 0
-8120 44 0
-8120 -45 0
-8120 5920 0
-5950 -67 0
-5950 -68 0
-5950 69 0
8634 -5950 0
-9715 -10 0
-9715 -11 0
-9715 -12 0
-9715 9627 0
-5437 -37 0
-5437 -38 0
-5437 39 0
-648 -70 0
-648 -71 0
-648 72 0
9668 -648 0
-7516 -13 0
-7516 -14 0
-7516 -15 0
-7516 7362 0
-2694 70 0
-2694 -71 0
-2694 -72 0
9448 -2694 0
-7575 58 0
-7575 -59 0
-7575 -60 0
-7575 6959 0
-9286 -40 0
-9286 41 0
-9286 -42 0
-9286 7834 0
-6405 -46 0
-6405 -47 0
-6405 48 0
9419 -6405 0
-365 -13 0
-365 -14 0
-365 15 0
9231 -365 0
-7680 40 0
-7680 -41 0
-7680 -42 0
-7680 7130 0
-7978 7 0
-7978 8 0
-7978 -9 0
-7978 5646 0
-8551 16 0
-8551 -17 0
-8551 -18 0
-8551 8023 0
-95 -61 0
-95 -62 0
-95 63 0
8917 -95 0
-6373 -16 0
-6373 -17 0
-6373 18 0
9365 -6373 0
-8604 -43 0
-8604 -44 0
-8604 -45 0
-8604 8450 0
-5633 -34 0
-5633 -35 0
-5633 -36 0
-5633 5435 0
-282 -28 0
-282 -29 0
-282 -30 0
5672 -282 0
-779 -67 0
-779 -68 0
-779 69 0
9821 -779 0
-9460 -34 0
-9460 -35 0
-9460 -36 0
-9460 9306 0
-9635 -31 0
-9635 32 0
-9635 -33 0
-9635 8469 0
-7658 43 0
-7658 -44 0
-7658 -45 0
-7658 7108 0
-175 -37 0
-175 -38 0
-175 -39 0
5367 -175 0
-1866 28 0
-1866 29 0
-1866 -30 0
7278 -1866 0
-7395 -40 0
-7395 41 0
-7395 -42 0
-7395 6097 0
-6589 -70 0
-6589 -71 0
-6589 72 0
7469 -6589 0
-2413 -19 0
-2413 20 0
-2413 -21 0
8287 -2413 0
-9432 -19 0
-9432 -20 0
-9432 -21 0
-9432 9278 0
-1036 -46 0
-1036 47 0
-1036 -48 0
5788 -1036 0
-8001 -16 0
-8001 -17 0
-8001 -18 0
-8001 7803 0
-7374 -46 0
-7374 47 0
-7374 -48 0
-7374 6076 0
-8803 43 0
-8803 44 0
-8803 -45 0
-8803 7197 0
-9643 -55 0
-9643 56 0
-9643 -57 0
-9643 8477 0
-6330 -16 0
-6330 -17 0
-6330 18 0
9300 -6330 0
-530 -46 0
-530 -47 0
-530 48 0
9528 -530 0
-7414 -37 0
-7414 38 0
-7414 -39 0
-7414 6160 0
-8988 -73 0
-8988 -74 0
-8988 -75 0
-8988 8900 0
-6780 -49 0
-6780 -50 0
-6780 -51 0
-6780 6692 0
-1582 34 0
-1582 35 0
-1582 -36 0
6774 -1582 0
-5798 -73 0
-5798 -74 0
-5798 -75 0
-5798 5710 0
-7307 -46 0
-7307 47 0
-7307 -48 0
-7307 6009 0
-6223 22 0
-6223 -23 0
-6223 -24 0
-6223 5651 0
-7053 -7 0
-7053 8 0
-7053 -9 0
-7053 5557 0
-6257 -64 0
-6257 -65 0
-6257 -66 0
-6257 6059 0
-1998 28 0
-1998 29 0
-1998 -30 0
7476 -1998 0
-9466 -52 0
-9466 -53 0
-9466 -54 0
-9466 9312 0
-8528 10 0
-8528 -11 0
-8528 -12 0
-8528 7978 0
-7982 19 0
-7982 20 0
-7982 -21 0
-7982 5650 0
-8218 73 0
-8218 74 0
-8218 -75 0
-8218 6832 0
-8082 61 0
-8082 62 0
-8082 -63 0
-8082 6696 0
-543 -19 0
-543 -20 0
-543 21 0
9541 -543 0
-9439 -40 0
-9439 -41 0
-9439 -42 0
-9439 9285 0
-2646 58 0
-2646 -59 0
-2646 -60 0
9356 -2646 0
-179 -49 0
-179 -50 0
-179 -51 0
5371 -179 0
-9437 -34 0
-9437 -35 0
-9437 -36 0
-9437 9283 0
-7379 -61 0
-7379 62 0
-7379 -63 0
-7379 6081 0
-1760 40 0
-1760 -41 0
-1760 -42 0
7898 -1760 0
-8590 64 0
-8590 -65 0
-8590 -66 0
-8590 8062 0
-8407 -43 0
-8407 -44 0
-8407 -45 0
-8407 8253 0
-1889 31 0
-1889 32 0
-1889 -33 0
7301 -1889 0
-9763 19 0
-9763 -20 0
-9763 -21 0
-9763 9301 0
-2291 -49 0
-2291 50 0
-2291 -51 0
8121 -2291 0
-6248 -37 0
-6248 -38 0
-6248 -39 0
-6248 6050 0
-6349 -4 0
-6349 -5 0
-6349 6 0
6987 -6349 0
-1642 16 0
-1642 17 0
-1642 -18 0
6856 -1642 0
-6294 -37 0
-6294 -38 0
-6294 -39 0
-6294 6096 0
-423 55 0
-423 -56 0
-423 -57 0
5461 -423 0
-7328 -43 0
-7328 -44 0
-7328 -45 0
-7328 7240 0
-9632 -22 0
-9632 23 0
-9632 -24 0
-9632 8466 0
-8066 13 0
-8066 14 0
-8066 -15 0
-8066 6680 0
-9854 -31 0
-9854 -32 0
-9854 -33 0
-9854 9766 0
-1246 -16 0
-1246 17 0
-1246 -18 0
6240 -1246 0
-1670 34 0
-1670 35 0
-1670 -36 0
6884 -1670 0
-2577 -49 0
-2577 50 0
-2577 -51 0
8605 -2577 0
-6890 49 0
-6890 -50 0
-6890 -51 0
-6890 6516 0
-986 -28 0
-986 29 0
-986 -30 0
5738 -986 0
-5569 -40 0
-5569 -41 0
-5569 42 0
5657 -5569 0
-7423 -64 0
-7423 65 0
-7423 -66 0
-7423 6169 0
-324 -22 0
-324 -23 0
-324 24 0
9190 -324 0
-1416 64 0
-1416 65 0
-1416 -66 0
6586 -1416 0
-7510 -58 0
-7510 59 0
-7510 -60 0
-7510 6300 0
-7883 58 0
-7883 59 0
-7883 -60 0
-7883 6431 0
-7625 10 0
-7625 -11 0
-7625 -12 0
-7625 7053 0
-5498 -28 0
-5498 -29 0
-5498 30 0
7984 -5498 0
-9858 -43 0
-9858 -44 0
-9858 -45 0
-9858 9770 0
-675 -19 0
-675 -20 0
-675 21 0
9695 -675 0
-8754 28 0
-8754 29 0
-8754 -30 0
-8754 7126 0
-7324 -31 0
-7324 -32 0
-7324 -33 0
-7324 7236 0
-6546 -73 0
-6546 -74 0
-6546 75 0
9648 -6546 0
-9827 16 0
-9827 -17 0
-9827 -18 0
-9827 9453 0
-8030 -34 0
-8030 -35 0
-8030 -36 0
-8030 7832 0
-1536 28 0
-1536 29 0
-1536 -30 0
6728 -1536 0
-8537 37 0
-8537 -38 0
-8537 -39 0
-8537 7987 0
-5681 -52 0
-5681 -53 0
-5681 54 0
9025 -5681 0
-7233 -19 0
-7233 20 0
-7233 -21 0
-7233 5847 0
-959 -13 0
-959 14 0
-959 -15 0
5711 -959 0
-8267 22 0
-8267 23 0
-8267 -24 0
-8267 6155 0
-8043 -4 0
-8043 -5 0
-8043 -6 0
-8043 7845 0
-6837 22 0
-6837 -23 0
-6837 -24 0
-6837 6419 0
-7993 52 0
-7993 53 0
-7993 -54 0
-7993 5661 0
-191 -19 0
-191 -20 0
-191 21 0
9035 -191 0
-9192 25 0
-9192 -26 0
-9192 -27 0
-9192 8796 0
-6000 -16 0
-6000 -17 0
-6000 -18 0
-6000 5846 0
-7022 -49 0
-7022 50 0
-7022 -51 0
-7022 5504 0
-6830 64 0
-6830 -65 0
-6830 -66 0
-6830 6368 0
-768 -34 0
-768 -35 0
-768 36 0
9810 -768 0
-6941 -70 0
-6941 71 0
-6941 -72 0
-6941 5709 0
-622 -58 0
-622 -59 0
-622 -60 0
6320 -622 0
-2112 40 0
-2112 41 0
-2112 -42 0
7700 -2112 0
-6424 -34 0
-6424 -35 0
-6424 36 0
7128 -6424 0
-8913 46 0
-8913 47 0
-8913 -48 0
-8913 7461 0
-1487 -13 0
-1487 -14 0
-1487 -15 0
7779 -1487 0
-6913 -52 0
-6913 -53 0
-6913 -54 0
-6913 6825 0
-1118 -28 0
-1118 29 0
-1118 -30 0
5936 -1118 0
-5445 -61 0
-5445 -62 0
-5445 63 0
-7170 -28 0
-7170 -29 0
-7170 -30 0
-7170 6972 0
-452 76 0
-452 -77 0
-452 -78 0
5490 -452 0
-2214 16 0
-2214 -17 0
-2214 -18 0
8770 -2214 0
-5861 -58 0
-5861 -59 0
-5861 60 0
6103 -5861 0
-238 -28 0
-238 -29 0
-238 30 0
9082 -238 0
-1372 64 0
-1372 -65 0
-1372 -66 0
7158 -1372 0
-6375 -22 0
-6375 -23 0
-6375 24 0
9367 -6375 0
-696 -16 0
-696 -17 0
-696 18 0
9716 -696 0
-636 -34 0
-636 -35 0
-636 36 0
9656 -636 0
-9014 16 0
-9014 17 0
-9014 -18 0
-9014 7606 0
-8553 22 0
-8553 -23 0
-8553 -24 0
-8553 8025 0
-7843 64 0
-7843 65 0
-7843 -66 0
-7843 5445 0
-131 -37 0
-131 -38 0
-131 39 0
8953 -131 0
-1057 -43 0
-1057 -44 0
-1057 -45 0
6931 -1057 0
-7134 -49 0
-7134 50 0
-7134 -51 0
-7134 5660 0
-2682 34 0
-2682 -35 0
-2682 -36 0
9436 -2682 0
-1454 46 0
-1454 47 0
-1454 -48 0
6624 -1454 0
-7117 -67 0
-7117 68 0
-7117 -69 0
-7117 5643 0
-602 -64 0
-602 -65 0
-602 66 0
9600 -602 0
-9608 -19 0
-9608 20 0
-9608 -21 0
-9608 8442 0
-8094 28 0
-8094 29 0
-8094 -30 0
-8094 5850 0
-6430 -52 0
-6430 -53 0
-6430 54 0
7134 -6430 0
-798 -58 0
-798 -59 0
-798 60 0
9840 -798 0
-8805 49 0
-8805 50 0
-8805 -51 0
-8805 7199 0
-9428 -70 0
-9428 71 0
-9428 -72 0
-9428 8064 0
-8003 -22 0
-8003 -23 0
-8003 -24 0
-8003 7805 0
-8116 31 0
-8116 32 0
-8116 -33 0
-8116 5916 0
-774 -52 0
-774 -53 0
-774 54 0
9816 -774 0
-1681 67 0
-1681 68 0
-1681 -69 0
6895 -1681 0
-2559 -61 0
-2559 62 0
-2559 -63 0
8565 -2559 0
-2117 55 0
-2117 56 0
-2117 -57 0
7705 -2117 0
-1750 76 0
-1750 -77 0
-1750 -78 0
7888 -1750 0
-8443 19 0
-8443 -20 0
-8443 -21 0
-8443 7827 0
-7654 31 0
-7654 -32 0
-7654 -33 0
-7654 7104 0
-1839 13 0
-1839 14 0
-1839 -15 0
7251 -1839 0
-2135 43 0
-2135 44 0
-2135 -45 0
7745 -2135 0
-135 -49 0
-135 -50 0
-135 51 0
8957 -135 0
-8994 25 0
-8994 26 0
-8994 -27 0
-8994 7586 0
-9247 -58 0
-9247 -59 0
-9247 -60 0
-9247 9159 0
-8600 -31 0
-8600 -32 0
-8600 -33 0
-8600 8446 0
-9615 -40 0
-9615 41 0
-9615 -42 0
-9615 8449 0
-9266 -49 0
-9266 50 0
-9266 -51 0
-9266 8100 0
-1594 70 0
-1594 71 0
-1594 -72 0
6786 -1594 0
-838 -46 0
-838 -47 0
-838 -48 0
6668 -838 0
-5532 -67 0
-5532 -68 0
-5532 69 0
8854 -5532 0
-5771 -58 0
-5771 -59 0
-5771 60 0
8411 -5771 0
-9339 -70 0
-9339 71 0
-9339 -72 0
-9339 7931 0
-7854 28 0
-7854 29 0
-7854 -30 0
-7764 -28 0
-7764 -29 0
-7764 -30 0
-7764 7610 0
-8036 -52 0
-8036 -53 0
-8036 -54 0
-8036 7838 0
-9613 -34 0
-9613 35 0
-9613 -36 0
-9613 8447 0
-8262 67 0
-8262 68 0
-8262 -69 0
-8262 6106 0
-1682 70 0
-1682 71 0
-1682 -72 0
6896 -1682 0
-8695 46 0
-8695 47 0
-8695 -48 0
-8695 7001 0
-478 22 0
-478 -23 0
-478 -24 0
5582 -478 0
-1593 67 0
-1593 68 0
-1593 -69 0
6785 -1593 0
-642 -52 0
-642 -53 0
-642 54 0
9662 -642 0
-5359 -10 0
-5359 -11 0
-5359 12 0
8879 -5359 0
-1326 58 0
-1326 -59 0
-1326 -60 0
7046 -1326 0
-7137 -58 0
-7137 59 0
-7137 -60 0
-7137 5663 0
-8409 -49 0
-8409 -50 0
-8409 -51 0
-8409 8255 0
-2688 52 0
-2688 -53 0
-2688 -54 0
9442 -2688 0
-8662 16 0
-8662 17 0
-8662 -18 0
-8662 6968 0
-8153 10 0
-8153 11 0
-8153 -12 0
-8153 5997 0
-881 43 0
-881 -44 0
-881 -45 0
6403 -881 0
-2697 -13 0
-2697 -14 0
-2697 -15 0
9737 -2697 0
-7367 -25 0
-7367 26 0
-7367 -27 0
-7367 6069 0
-6041 7 0
-6041 -8 0
-6041 -9 0
-6041 5403 0
-5752 -67 0
-5752 -68 0
-5752 69 0
8370 -5752 0
-5485 -58 0
-5485 -59 0
-5485 60 0
8807 -5485 0
-8429 46 0
-8429 -47 0
-8429 -48 0
-8429 7813 0
-5858 -49 0
-5858 -50 0
-5858 51 0
6100 -5858 0
-2405 -61 0
-2405 62 0
-2405 -63 0
8279 -2405 0
-9582 -73 0
-9582 74 0
-9582 -75 0
-9582 8416 0
-513 -61 0
-513 -62 0
-513 -63 0
6035 -513 0
-1535 25 0
-1535 26 0
-1535 -27 0
6727 -1535 0
-8905 22 0
-8905 23 0
-8905 -24 0
-8905 7453 0
-7718 22 0
-7718 -23 0
-7718 -24 0
-7718 7190 0
-899 31 0
-899 -32 0
-899 -33 0
6443 -899 0
-7061 -31 0
-7061 32 0
-7061 -33 0
-7061 5565 0
-5682 -55 0
-5682 -56 0
-5682 57 0
9026 -5682 0
-757 -67 0
-757 -68 0
-757 69 0
9799 -757 0
-512 -58 0
-512 -59 0
-512 -60 0
6034 -512 0
-5673 -28 0
-5673 -29 0
-5673 30 0
9017 -5673 0
-1625 31 0
-1625 32 0
-1625 -33 0
6839 -1625 0
-6395 -16 0
-6395 -17 0
-6395 18 0
9409 -6395 0
-2404 -58 0
-2404 59 0
-2404 -60 0
8278 -2404 0
-7896 31 0
-7896 32 0
-7896 -33 0
-7896 6466 0
-1527 67 0
-1527 68 0
-1527 -69 0
6719 -1527 0
-8044 -7 0
-8044 -8 0
-8044 -9 0
-8044 7846 0
-7962 28 0
-7962 29 0
-7962 -30 0
-7962 5630 0
-5377 -64 0
-5377 -65 0
-5377 66 0
8897 -5377 0
-7249 -67 0
-7249 68 0
-7249 -69 0
-7249 5863 0
-8321 49 0
-8321 50 0
-8321 -51 0
-8321 6231 0
-7816 52 0
-7816 53 0
-7816 -54 0
-7816 6364 0
-6752 -31 0
-6752 -32 0
-6752 33 0
7764 -6752 0
-6383 -46 0
-6383 -47 0
-6383 48 0
9375 -6383 0
-8561 46 0
-8561 -47 0
-8561 -48 0
-8561 8033 0
-2446 -52 0
-2446 53 0
-2446 -54 0
8342 -2446 0
-9354 -49 0
-9354 50 0
-9354 -51 0
-9354 7968 0
-8171 64 0
-8171 65 0
-8171 -66 0
-8171 6015 0
-670 -70 0
-670 -71 0
-670 72 0
9690 -670 0
-2611 19 0
-2611 -20 0
-2611 -21 0
9321 -2611 0
-1773 13 0
-1773 -14 0
-1773 -15 0
7933 -1773 0
-5646 -4 0
-5646 -5 0
-5646 -6 0
-9538 -73 0
-9538 74 0
-9538 -75 0
-9538 8328 0
-1383 -31 0
-1383 -32 0
-1383 -33 0
7565 -1383 0
-1327 61 0
-1327 -62 0
-1327 -63 0
7047 -1327 0
-156 -46 0
-156 -47 0
-156 48 0
8978 -156 0
-8162 37 0
-8162 38 0
-8162 -39 0
-8162 6006 0
-1117 -25 0
-1117 26 0
-1117 -27 0
5935 -1117 0
-669 -67 0
-669 -68 0
-669 69 0
9689 -669 0
-2558 -58 0
-2558 59 0
-2558 -60 0
8564 -2558 0
-6914 -55 0
-6914 -56 0
-6914 -57 0
-6914 6826 0
-5571 -46 0
-5571 -47 0
-5571 48 0
5659 -5571 0
-7438 -43 0
-7438 44 0
-7438 -45 0
-7438 6206 0
-6275 -49 0
-6275 -50 0
-6275 -51 0
-6275 6077 0
-2308 -34 0
-2308 35 0
-2308 -36 0
8138 -2308 0
-8952 31 0
-8952 32 0
-8952 -33 0
-8952 7544 0
-7729 55 0
-7729 -56 0
-7729 -57 0
-7729 7201 0
-5804 -25 0
-5804 -26 0
-5804 27 0
9148 -5804 0
-6905 -28 0
-6905 -29 0
-6905 -30 0
-6905 6817 0
-6084 67 0
-6084 -68 0
-6084 -69 0
-6084 5446 0
-8788 67 0
-8788 68 0
-8788 -69 0
-8788 7182 0
-5446 -64 0
-5446 -65 0
-5446 66 0
-5638 -49 0
-5638 -50 0
-5638 -51 0
-5638 5440 0
-758 -70 0
-758 -71 0
-758 72 0
9800 -758 0
-7355 -58 0
-7355 59 0
-7355 -60 0
-7355 6057 0
-6967 -10 0
-6967 11 0
-6967 -12 0
-6967 5427 0
-2324 -16 0
-2324 17 0
-2324 -18 0
8154 -2324 0
-7492 -73 0
-7492 74 0
-7492 -75 0
-7492 6282 0
-1610 -52 0
-1610 -53 0
-1610 -54 0
8078 -1610 0
-5368 -37 0
-5368 -38 0
-5368 39 0
8888 -5368 0
-8275 46 0
-8275 47 0
-8275 -48 0
-8275 6163 0
-1771 73 0
-1771 -74 0
-1771 -75 0
7909 -1771 0
-237 -25 0
-237 -26 0
-237 27 0
9081 -237 0
-5727 -58 0
-5727 -59 0
-5727 60 0
8323 -5727 0
-6845 46 0
-6845 -47 0
-6845 -48 0
-6845 6427 0
-9761 13 0
-9761 -14 0
-9761 -15 0
-9761 9299 0
-2040 -22 0
-2040 -23 0
-2040 -24 0
8860 -2040 0
-9501 -25 0
-9501 26 0
-9501 -27 0
-9501 8247 0
-1528 70 0
-1528 71 0
-1528 -72 0
6720 -1528 0
-799 -61 0
-799 -62 0
-799 63 0
9841 -799 0
-7101 -19 0
-7101 20 0
-7101 -21 0
-7101 5627 0
-2440 -34 0
-2440 35 0
-2440 -36 0
8336 -2440 0
-429 73 0
-429 -74 0
-429 -75 0
5467 -429 0
-8473 40 0
-8473 -41 0
-8473 -42 0
-8473 7857 0
-6821 37 0
-6821 -38 0
-6821 -39 0
-6821 6359 0
-5967 -49 0
-5967 -50 0
-5967 51 0
6297 -5967 0
-623 -61 0
-623 -62 0
-623 -63 0
6321 -623 0
-7721 31 0
-7721 -32 0
-7721 -33 0
-7721 7193 0
-8421 22 0
-8421 -23 0
-8421 -24 0
-8421 7805 0
-7634 37 0
-7634 -38 0
-7634 -39 0
-7634 7062 0
-8459 67 0
-8459 -68 0
-8459 -69 0
-8459 7843 0
-7058 -22 0
-7058 23 0
-7058 -24 0
-7058 5562 0
-1225 -19 0
-1225 20 0
-1225 -21 0
6175 -1225 0
-6365 -52 0
-6365 -53 0
-6365 54 0
7003 -6365 0
-7294 -73 0
-7294 74 0
-7294 -75 0
-7294 5974 0
-8546 64 0
-8546 -65 0
-8546 -66 0
-8546 7996 0
-6632 -67 0
-6632 -68 0
-6632 69 0
7556 -6632 0
-454 16 0
-454 -17 0
-454 -18 0
5514 -454 0
-7810 34 0
-7810 35 0
-7810 -36 0
-7810 6358 0
-5641 -58 0
-5641 -59 0
-5641 -60 0
-5641 5443 0
-8011 -46 0
-8011 -47 0
-8011 -48 0
-8011 7813 0
-9096 67 0
-9096 68 0
-9096 -69 0
-9096 7776 0
-7397 -46 0
-7397 47 0
-7397 -48 0
-7397 6099 0
-7643 64 0
-7643 -65 0
-7643 -66 0
-7643 7071 0
-1604 -34 0
-1604 -35 0
-1604 -36 0
8072 -1604 0
-8048 -19 0
-8048 -20 0
-8048 -21 0
-8048 7850 0
-5409 -22 0
-5409 -23 0
-5409 24 0
7851 -5409 0
-8572 10 0
-8572 -11 0
-8572 -12 0
-8572 8044 0
-9627 -7 0
-9627 8 0
-9627 -9 0
-9627 8461 0
-1137 -19 0
-1137 20 0
-1137 -21 0
5977 -1137 0
-5454 -31 0
-5454 -32 0
-5454 33 0
8754 -5454 0
-1003 -13 0
-1003 14 0
-1003 -15 0
5755 -1003 0
-7297 -16 0
-7297 17 0
-7297 -18 0
-7297 5999 0
-2314 -52 0
-2314 53 0
-2314 -54 0
8144 -2314 0
-6574 -25 0
-6574 -26 0
-6574 27 0
7454 -6574 0
-7605 10 0
-7605 -11 0
-7605 -12 0
-7605 6989 0
-7069 -55 0
-7069 56 0
-7069 -57 0
-7069 5573 0
-1252 -34 0
-1252 35 0
-1252 -36 0
6246 -1252 0
-283 -31 0
-283 -32 0
-283 -33 0
5673 -283 0
-8777 34 0
-8777 35 0
-8777 -36 0
-8777 7171 0
-1709 -19 0
-1709 -20 0
-1709 -21 0
8199 -1709 0
-1181 -19 0
-1181 20 0
-1181 -21 0
6109 -1181 0
-8020 -73 0
-8020 -74 0
-8020 -75 0
-8020 7822 0
-1664 16 0
-1664 17 0
-1664 -18 0
6878 -1664 0
-7450 -10 0
-7450 11 0
-7450 -12 0
-7450 6218 0
-8650 49 0
-8650 50 0
-8650 -51 0
-8650 7242 0
-1867 31 0
-1867 32 0
-1867 -33 0
7279 -1867 0
-5779 -16 0
-5779 -17 0
-5779 -18 0
-5779 5691 0
-7155 -52 0
-7155 -53 0
-7155 -54 0
-7155 6957 0
-2582 -64 0
-2582 65 0
-2582 -66 0
8610 -2582 0
-1782 40 0
-1782 -41 0
-1782 -42 0
7942 -1782 0
-8969 -16 0
-8969 -17 0
-8969 -18 0
-8969 8881 0
-8199 16 0
-8199 17 0
-8199 -18 0
-8199 6813 0
-6971 -22 0
-6971 23 0
-6971 -24 0
-6971 5431 0
-7565 28 0
-7565 -29 0
-7565 -30 0
-7565 6949 0
-1017 -55 0
-1017 56 0
-1017 -57 0
5769 -1017 0
-1459 61 0
-1459 62 0
-1459 -63 0
6629 -1459 0
-6868 49 0
-6868 -50 0
-6868 -51 0
-6868 6472 0
-7574 55 0
-7574 -56 0
-7574 -57 0
-7574 6958 0
-6455 -64 0
-6455 -65 0
-6455 66 0
9469 -6455 0
-1648 34 0
-1648 35 0
-1648 -36 0
6862 -1648 0
-9765 25 0
-9765 -26 0
-9765 -27 0
-9765 9303 0
-9497 -13 0
-9497 14 0
-9497 -15 0
-9497 8243 0
-5892 -25 0
-5892 -26 0
-5892 27 0
8576 -5892 0
-1908 22 0
-1908 23 0
-1908 -24 0
7320 -1908 0
-8452 46 0
-8452 -47 0
-8452 -48 0
-8452 7836 0
-7334 -61 0
-7334 -62 0
-7334 -63 0
-7334 7246 0
-2296 -64 0
-2296 65 0
-2296 -66 0
8126 -2296 0
-5885 -70 0
-5885 -71 0
-5885 72 0
8547 -5885 0
-8772 19 0
-8772 20 0
-8772 -21 0
-8772 7166 0
-7383 -4 0
-7383 5 0
-7383 -6 0
-7383 6085 0
-184 -64 0
-184 -65 0
-184 -66 0
5376 -184 0
-7318 -13 0
-7318 -14 0
-7318 -15 0
-7318 7230 0
-8076 43 0
-8076 44 0
-8076 -45 0
-8076 6690 0
-258 -22 0
-258 -23 0
-258 24 0
9102 -258 0
-9141 70 0
-9141 -71 0
-9141 -72 0
-9141 8679 0
-7504 -40 0
-7504 41 0
-7504 -42 0
-7504 6294 0
-6446 -37 0
-6446 -38 0
-6446 39 0
9460 -6446 0
-6093 25 0
-6093 -26 0
-6093 -27 0
-1272 -28 0
-1272 -29 0
-1272 -30 0
7344 -1272 0
-2267 -43 0
-2267 -44 0
-2267 -45 0
9131 -2267 0
-8723 70 0
-8723 71 0
-8723 -72 0
-8723 7073 0
-9565 -22 0
-9565 23 0
-9565 -24 0
-9565 8399 0
-8251 34 0
-8251 35 0
-8251 -36 0
-8251 6095 0
-8779 40 0
-8779 41 0
-8779 -42 0
-8779 7173 0
-7074 -70 0
-7074 71 0
-7074 -72 0
-7074 5578 0
-6962 -64 0
-6962 65 0
-6962 -66 0
-6962 5422 0
-8682 7 0
-8682 8 0
-8682 -9 0
-8682 6988 0
-6486 -25 0
-6486 -26 0
-6486 -27 0
-6486 6332 0
-1576 16 0
-1576 17 0
-1576 -18 0
6768 -1576 0
-9390 -25 0
-9390 26 0
-9390 -27 0
-9390 8026 0
-8457 61 0
-8457 -62 0
-8457 -63 0
-8457 7841 0
-7285 -46 0
-7285 47 0
-7285 -48 0
-7285 5965 0
-160 -58 0
-160 -59 0
-160 60 0
8982 -160 0
-987 -31 0
-987 32 0
-987 -33 0
5739 -987 0
-2237 19 0
-2237 -20 0
-2237 -21 0
8815 -2237 0
-8610 -61 0
-8610 -62 0
-8610 -63 0
-8610 8456 0
-7242 -46 0
-7242 47 0
-7242 -48 0
-7242 5856 0
-6623 -40 0
-6623 -41 0
-6623 42 0
7547 -6623 0
-1654 52 0
-1654 53 0
-1654 -54 0
6868 -1654 0
-5405 -10 0
-5405 -11 0
-5405 12 0
7847 -5405 0
-9085 34 0
-9085 35 0
-9085 -36 0
-9085 7765 0
-6529 -22 0
-6529 -23 0
-6529 24 0
9631 -6529 0
-2084 22 0
-2084 23 0
-2084 -24 0
7650 -2084 0
-2232 70 0
-2232 -71 0
-2232 -72 0
8788 -2232 0
-7664 61 0
-7664 -62 0
-7664 -63 0
-7664 7114 0
-1888 28 0
-1888 29 0
-1888 -30 0
7300 -1888 0
-6616 -19 0
-6616 -20 0
-6616 21 0
7540 -6616 0
-1258 -52 0
-1258 53 0
-1258 -54 0
6252 -1258 0
-7483 -46 0
-7483 47 0
-7483 -48 0
-7483 6273 0
-9649 -10 0
-9649 11 0
-9649 -12 0
-9649 8527 0
-2400 -46 0
-2400 47 0
-2400 -48 0
8274 -2400 0
-508 -46 0
-508 -47 0
-508 -48 0
6030 -508 0
-8126 61 0
-8126 62 0
-8126 -63 0
-8126 5926 0
-714 -70 0
-714 -71 0
-714 72 0
9734 -714 0
-8284 73 0
-8284 74 0
-8284 -75 0
-8284 6172 0
-8686 19 0
-8686 20 0
-8686 -21 0
-8686 6992 0
-9144 10 0
-9144 -11 0
-9144 -12 0
-9144 8682 0
-7609 22 0
-7609 -23 0
-7609 -24 0
-7609 6993 0
-6854 73 0
-6854 -74 0
-6854 -75 0
-6854 6436 0
-8477 52 0
-8477 -53 0
-8477 -54 0
-8477 7861 0
-1999 31 0
-1999 32 0
-1999 -33 0
7477 -1999 0
-8110 13 0
-8110 14 0
-8110 -15 0
-8110 5910 0
-385 -73 0
-385 -74 0
-385 75 0
9251 -385 0
-9075 70 0
-9075 71 0
-9075 -72 0
-9075 7733 0
-7247 -61 0
-7247 62 0
-7247 -63 0
-7247 5861 0
-1012 -40 0
-1012 41 0
-1012 -42 0
5764 -1012 0
-5557 -4 0
-5557 -5 0
-5557 6 0
5645 -5557 0
-7834 37 0
-7834 38 0
-7834 -39 0
-7834 5436 0
-7526 -43 0
-7526 -44 0
-7526 -45 0
-7526 7372 0
-9080 19 0
-9080 20 0
-9080 -21 0
-9080 7760 0
-713 -67 0
-713 -68 0
-713 69 0
9733 -713 0
-7220 -49 0
-7220 50 0
-7220 -51 0
-7220 5834 0
-7734 70 0
-7734 -71 0
-7734 -72 0
-7734 7206 0
-8570 73 0
-8570 -74 0
-8570 -75 0
-8570 8042 0
-9087 40 0
-9087 41 0
-9087 -42 0
-9087 7767 0
-6361 -40 0
-6361 -41 0
-6361 42 0
6999 -6361 0
-6621 -34 0
-6621 -35 0
-6621 36 0
7545 -6621 0
-9803 10 0
-9803 -11 0
-9803 -12 0
-9803 9407 0
-8594 -13 0
-8594 -14 0
-8594 -15 0
-8594 8440 0
-6392 -73 0
-6392 -74 0
-6392 75 0
9384 -6392 0
-5828 -28 0
-5828 -29 0
-5828 30 0
8468 -5828 0
-843 -61 0
-843 -62 0
-843 -63 0
6673 -843 0
-7648 13 0
-7648 -14 0
-7648 -15 0
-7648 7098 0
-2231 67 0
-2231 -68 0
-2231 -69 0
8787 -2231 0
-2554 -46 0
-2554 47 0
-2554 -48 0
8560 -2554 0
-1787 55 0
-1787 -56 0
-1787 -57 0
7947 -1787 0
-9529 -46 0
-9529 47 0
-9529 -48 0
-9529 8319 0
-842 -58 0
-842 -59 0
-842 -60 0
6672 -842 0
-443 49 0
-443 -50 0
-443 -51 0
5481 -443 0
-968 -40 0
-968 41 0
-968 -42 0
5720 -968 0
-8946 13 0
-8946 14 0
-8946 -15 0
-8946 7538 0
-7581 7 0
-7581 -8 0
-7581 -9 0
-7581 6965 0
-9658 -37 0
-9658 38 0
-9658 -39 0
-9658 8536 0
-7156 -55 0
-7156 -56 0
-7156 -57 0
-7156 6958 0
-7110 -46 0
-7110 47 0
-7110 -48 0
-7110 5636 0
-7147 -28 0
-7147 -29 0
-7147 -30 0
-7147 6949 0
-6762 -61 0
-6762 -62 0
-6762 63 0
7774 -6762 0
-1959 43 0
-1959 44 0
-1959 -45 0
7415 -1959 0
-471 67 0
-471 -68 0
-471 -69 0
5531 -471 0
-1556 22 0
-1556 23 0
-1556 -24 0
6748 -1556 0
-2523 -19 0
-2523 20 0
-2523 -21 0
8507 -2523 0
-7944 43 0
-7944 44 0
-7944 -45 0
-7944 6514 0
-9423 -55 0
-9423 56 0
-9423 -57 0
-9423 8059 0
-9023 43 0
-9023 44 0
-9023 -45 0
-9023 7615 0
-2711 -55 0
-2711 -56 0
-2711 -57 0
9751 -2711 0
-7573 52 0
-7573 -53 0
-7573 -54 0
-7573 6957 0
-7906 61 0
-7906 62 0
-7906 -63 0
-7906 6476 0
-9821 64 0
-9821 -65 0
-9821 -66 0
-9821 9425 0
-7277 -22 0
-7277 23 0
-7277 -24 0
-7277 5957 0
-794 -46 0
-794 -47 0
-794 48 0
9836 -794 0
-8438 73 0
-8438 -74 0
-8438 -75 0
-8438 7822 0
-6152 10 0
-6152 -11 0
-6152 -12 0
-6152 5558 0
-1737 37 0
-1737 -38 0
-1737 -39 0
7875 -1737 0
-5562 -19 0
-5562 -20 0
-5562 21 0
5650 -5562 0
-9573 -46 0
-9573 47 0
-9573 -48 0
-9573 8407 0
-9363 -7 0
-9363 8 0
-9363 -9 0
-9363 7977 0
-9812 37 0
-9812 -38 0
-9812 -39 0
-9812 9416 0
-2607 -73 0
-2607 -74 0
-2607 -75 0
9625 -2607 0
-9594 -43 0
-9594 -44 0
-9594 -45 0
-9594 9506 0
-6794 25 0
-6794 -26 0
-6794 -27 0
-6794 6332 0
-8681 4 0
-8681 5 0
-8681 -6 0
-8681 6987 0
-7890 13 0
-7890 14 0
-7890 -15 0
-7890 6460 0
-9412 -22 0
-9412 23 0
-9412 -24 0
-9412 8048 0
-7115 -61 0
-7115 62 0
-7115 -63 0
-7115 5641 0
-1094 -22 0
-1094 23 0
-1094 -24 0
5890 -1094 0
-6725 -16 0
-6725 -17 0
-6725 18 0
7715 -6725 0
-6009 -43 0
-6009 -44 0
-6009 -45 0
-6009 5855 0
-8962 61 0
-8962 62 0
-8962 -63 0
-8962 7554 0
-214 -22 0
-214 -23 0
-214 24 0
9058 -214 0
-7989 40 0
-7989 41 0
-7989 -42 0
-7989 5657 0
-2103 13 0
-2103 14 0
-2103 -15 0
7691 -2103 0
-8833 -70 0
-8833 -71 0
-8833 -72 0
-8833 8679 0
-9667 -64 0
-9667 65 0
-9667 -66 0
-9667 8545 0
-1322 46 0
-1322 -47 0
-1322 -48 0
7042 -1322 0
-6604 -49 0
-6604 -50 0
-6604 51 0
7506 -6604 0
-1428 34 0
-1428 35 0
-1428 -36 0
6598 -1428 0
-161 -61 0
-161 -62 0
-161 63 0
8983 -161 0
-7384 -7 0
-7384 8 0
-7384 -9 0
-7384 6086 0
-9222 49 0
-9222 -50 0
-9222 -51 0
-9222 8848 0
-1271 -25 0
-1271 -26 0
-1271 -27 0
7343 -1271 0
-1853 55 0
-1853 56 0
-1853 -57 0
7265 -1853 0
-1496 -40 0
-1496 -41 0
-1496 -42 0
7788 -1496 0
-6746 -13 0
-6746 -14 0
-6746 15 0
7758 -6746 0
-472 70 0
-472 -71 0
-472 -72 0
5532 -472 0
-2171 19 0
-2171 -20 0
-2171 -21 0
8705 -2171 0
-1485 73 0
-1485 74 0
-1485 -75 0
6655 -1485 0
-8738 49 0
-8738 50 0
-8738 -51 0
-8738 7110 0
-8671 43 0
-8671 44 0
-8671 -45 0
-8671 6977 0
-5523 -40 0
-5523 -41 0
-5523 42 0
8845 -5523 0
-9624 -67 0
-9624 68 0
-9624 -69 0
-9624 8458 0
-7088 -49 0
-7088 50 0
-7088 -51 0
-7088 5614 0
-8922 73 0
-8922 74 0
-8922 -75 0
-8922 7470 0
-1501 -55 0
-1501 -56 0
-1501 -57 0
7793 -1501 0
-1848 40 0
-1848 41 0
-1848 -42 0
7260 -1848 0
-5516 -19 0
-5516 -20 0
-5516 21 0
8838 -5516 0
-8485 16 0
-8485 -17 0
-8485 -18 0
-8485 7913 0
-740 -16 0
-740 -17 0
-740 18 0
9782 -740 0
-5608 -28 0
-5608 -29 0
-5608 -30 0
-5608 5410 0
-7363 -13 0
-7363 14 0
-7363 -15 0
-7363 6065 0
-5741 -34 0
-5741 -35 0
-5741 36 0
8359 -5741 0
-2342 -70 0
-2342 71 0
-2342 -72 0
8172 -2342 0
-9521 -22 0
-9521 23 0
-9521 -24 0
-9521 8311 0
-8057 -46 0
-8057 -47 0
-8057 -48 0
-8057 7859 0
-7388 -19 0
-7388 20 0
-7388 -21 0
-7388 6090 0
-1887 25 0
-1887 26 0
-1887 -27 0
7299 -1887 0
-5448 -13 0
-5448 -14 0
-5448 15 0
8748 -5448 0
-1510 16 0
-1510 17 0
-1510 -18 0
6702 -1510 0
-2347 -19 0
-2347 20 0
-2347 -21 0
8177 -2347 0
-1458 58 0
-1458 59 0
-1458 -60 0
6628 -1458 0
-2341 -67 0
-2341 68 0
-2341 -69 0
8171 -2341 0
-2706 -40 0
-2706 -41 0
-2706 -42 0
9746 -2706 0
-439 37 0
-439 -38 0
-439 -39 0
5477 -439 0
-6537 -46 0
-6537 -47 0
-6537 48 0
9639 -6537 0
-822 -64 0
-822 -65 0
-822 66 0
9864 -822 0
-1434 52 0
-1434 53 0
-1434 -54 0
6604 -1434 0
-2480 -22 0
-2480 -23 0
-2480 -24 0
9476 -2480 0
-6953 -37 0
-6953 38 0
-6953 -39 0
-6953 5413 0
-5464 -61 0
-5464 -62 0
-5464 63 0
8764 -5464 0
-5743 -40 0
-5743 -41 0
-5743 42 0
8361 -5743 0
-5521 -34 0
-5521 -35 0
-5521 36 0
8843 -5521 0
-973 -55 0
-973 56 0
-973 -57 0
5725 -973 0
-144 -76 0
-144 -77 0
-144 78 0
8966 -144 0
-652 -16 0
-652 -17 0
-652 18 0
9672 -652 0
-5736 -19 0
-5736 -20 0
-5736 21 0
8354 -5736 0
-9415 -31 0
-9415 32 0
-9415 -33 0
-9415 8051 0
-1741 49 0
-1741 -50 0
-1741 -51 0
7879 -1741 0
-9119 -70 0
-9119 -71 0
-9119 -72 0
-9119 9031 0
-5558 -7 0
-5558 -8 0
-5558 9 0
5646 -5558 0
-618 -46 0
-618 -47 0
-618 -48 0
6316 -618 0
-6437 -10 0
-6437 -11 0
-6437 12 0
9451 -6437 0
-6073 34 0
-6073 -35 0
-6073 -36 0
-6073 5435 0
-7475 -22 0
-7475 23 0
-7475 -24 0
-7475 6265 0
-6341 -49 0
-6341 -50 0
-6341 51 0
9311 -6341 0
-7499 -25 0
-7499 26 0
-7499 -27 0
-7499 6289 0
-748 -40 0
-748 -41 0
-748 42 0
9790 -748 0
-1028 -22 0
-1028 23 0
-1028 -24 0
5780 -1028 0
-8146 55 0
-8146 56 0
-8146 -57 0
-8146 5968 0
-111 -43 0
-111 -44 0
-111 45 0
8933 -111 0
-298 -76 0
-298 -77 0
-298 -78 0
5688 -298 0
-5435 -31 0
-5435 -32 0
-5435 33 0
-7139 -64 0
-7139 65 0
-7139 -66 0
-7139 5665 0
-522 -22 0
-522 -23 0
-522 24 0
9520 -522 0
-8137 28 0
-8137 29 0
-8137 -30 0
-8137 5959 0
-939 -19 0
-939 -20 0
-939 -21 0
6791 -939 0
-7838 49 0
-7838 50 0
-7838 -51 0
-7838 5440 0
-1518 40 0
-1518 41 0
-1518 -42 0
6710 -1518 0
-1882 76 0
-1882 77 0
-1882 -78 0
7294 -1882 0
-8668 34 0
-8668 35 0
-8668 -36 0
-8668 6974 0
-5869 -22 0
-5869 -23 0
-5869 24 0
8531 -5869 0
-9159 55 0
-9159 -56 0
-9159 -57 0
-9159 8697 0
-6728 -25 0
-6728 -26 0
-6728 27 0
7718 -6728 0
-8825 -46 0
-8825 -47 0
-8825 -48 0
-8825 8671 0
-6142 49 0
-6142 -50 0
-6142 -51 0
-6142 5548 0
-6012 -52 0
-6012 -53 0
-6012 -54 0
-6012 5858 0
-2061 19 0
-2061 20 0
-2061 -21 0
7627 -2061 0
-9616 -43 0
-9616 44 0
-9616 -45 0
-9616 8450 0
-6791 16 0
-6791 -17 0
-6791 -18 0
-6791 6329 0
-6231 46 0
-6231 -47 0
-6231 -48 0
-6231 5659 0
-1840 16 0
-1840 17 0
-1840 -18 0
7252 -1840 0
-1631 49 0
-1631 50 0
-1631 -51 0
6845 -1631 0
-9125 22 0
-9125 -23 0
-9125 -24 0
-9125 8663 0
-9340 -73 0
-9340 74 0
-9340 -75 0
-9340 7932 0
-1942 -58 0
-1942 -59 0
-1942 -60 0
8652 -1942 0
-660 -40 0
-660 -41 0
-660 42 0
9680 -660 0
-9373 -37 0
-9373 38 0
-9373 -39 0
-9373 7987 0
-6981 -52 0
-6981 53 0
-6981 -54 0
-6981 5441 0
-905 49 0
-905 -50 0
-905 -51 0
6449 -905 0
-7867 10 0
-7867 11 0
-7867 -12 0
-7867 6415 0
-7641 58 0
-7641 -59 0
-7641 -60 0
-7641 7069 0
-589 -25 0
-589 -26 0
-589 27 0
9587 -589 0
-2698 -16 0
-2698 -17 0
-2698 -18 0
9738 -2698 0
-1389 -49 0
-1389 -50 0
-1389 -51 0
7571 -1389 0
-9770 40 0
-9770 -41 0
-9770 -42 0
-9770 9308 0
-7925 49 0
-7925 50 0
-7925 -51 0
-7925 5571 0
-6101 49 0
-6101 -50 0
-6101 -51 0
-9026 52 0
-9026 53 0
-9026 -54 0
-9026 7618 0
-9581 -70 0
-9581 71 0
-9581 -72 0
-9581 8415 0
-8707 22 0
-8707 23 0
-8707 -24 0
-8707 7057 0
-7457 -31 0
-7457 32 0
-7457 -33 0
-7457 6225 0
-7591 37 0
-7591 -38 0
-7591 -39 0
-7591 6975 0
-9148 22 0
-9148 -23 0
-9148 -24 0
-9148 8686 0
-332 -46 0
-332 -47 0
-332 48 0
9198 -332 0
-1172 -58 0
-1172 -59 0
-1172 -60 0
7222 -1172 0
-6545 -70 0
-6545 -71 0
-6545 72 0
9647 -6545 0
-649 -73 0
-649 -74 0
-649 75 0
9669 -649 0
-5720 -37 0
-5720 -38 0
-5720 39 0
8316 -5720 0
-9857 -40 0
-9857 -41 0
-9857 -42 0
-9857 9769 0
-1627 37 0
-1627 38 0
-1627 -39 0
6841 -1627 0
-6351 -10 0
-6351 -11 0
-6351 12 0
6989 -6351 0
-7465 -55 0
-7465 56 0
-7465 -57 0
-7465 6233 0
-1002 -76 0
-1002 77 0
-1002 -78 0
5754 -1002 0
-5375 -58 0
-5375 -59 0
-5375 60 0
8895 -5375 0
-6418 -16 0
-6418 -17 0
-6418 18 0
7122 -6418 0
-2695 73 0
-2695 -74 0
-2695 -75 0
9449 -2695 0
-901 37 0
-901 -38 0
-901 -39 0
6445 -901 0
-5863 -64 0
-5863 -65 0
-5863 66 0
6105 -5863 0
-7348 -37 0
-7348 38 0
-7348 -39 0
-7348 6050 0
-1986 58 0
-1986 59 0
-1986 -60 0
7442 -1986 0
-6943 -7 0
-6943 8 0
-6943 -9 0
-6943 5403 0
-8467 22 0
-8467 -23 0
-8467 -24 0
-8467 7851 0
-7750 -55 0
-7750 -56 0
-7750 -57 0
-7750 7596 0
-5469 -10 0
-5469 -11 0
-5469 12 0
8791 -5469 0
-1385 -37 0
-1385 -38 0
-1385 -39 0
7567 -1385 0
-665 -55 0
-665 -56 0
-665 57 0
9685 -665 0
-960 -16 0
-960 17 0
-960 -18 0
5712 -960 0
-2026 46 0
-2026 47 0
-2026 -48 0
7526 -2026 0
-9020 34 0
-9020 35 0
-9020 -36 0
-9020 7612 0
-9850 -19 0
-9850 -20 0
-9850 -21 0
-9850 9762 0
-9111 -46 0
-9111 -47 0
-9111 -48 0
-9111 9023 0
-7741 -28 0
-7741 -29 0
-7741 -30 0
-7741 7587 0
-1359 25 0
-1359 -26 0
-1359 -27 0
7145 -1359 0
-727 -43 0
-727 -44 0
-727 -45 0
6535 -727 0
-7952 67 0
-7952 68 0
-7952 -69 0
-7952 6522 0
-7841 58 0
-7841 59 0
-7841 -60 0
-7841 5443 0
-9795 52 0
-9795 -53 0
-9795 -54 0
-9795 9377 0
-8169 58 0
-8169 59 0
-8169 -60 0
-8169 6013 0
-8335 28 0
-8335 29 0
-8335 -30 0
-8335 6267 0
-8592 70 0
-8592 -71 0
-8592 -72 0
-8592 8064 0
-6942 -73 0
-6942 74 0
-6942 -75 0
-6942 5710 0
-2014 76 0
-2014 77 0
-2014 -78 0
7492 -2014 0
-7673 19 0
-7673 -20 0
-7673 -21 0
-7673 7123 0
-781 -73 0
-781 -74 0
-781 75 0
9823 -781 0
-2213 13 0
-2213 -14 0
-2213 -15 0
8769 -2213 0
-8024 -16 0
-8024 -17 0
-8024 -18 0
-8024 7826 0
-8488 25 0
-8488 -26 0
-8488 -27 0
-8488 7916 0
-6215 67 0
-6215 -68 0
-6215 -69 0
-6215 5643 0
-9151 31 0
-9151 -32 0
-9151 -33 0
-9151 8689 0
-1403 25 0
-1403 26 0
-1403 -27 0
6573 -1403 0
-9059 22 0
-9059 23 0
-9059 -24 0
-9059 7717 0
-8344 55 0
-8344 56 0
-8344 -57 0
-8344 6276 0
-7619 52 0
-7619 -53 0
-7619 -54 0
-7619 7003 0
-7454 -22 0
-7454 23 0
-7454 -24 0
-7454 6222 0
-1488 -16 0
-1488 -17 0
-1488 -18 0
7780 -1488 0
-753 -55 0
-753 -56 0
-753 57 0
9795 -753 0
-9602 -67 0
-9602 -68 0
-9602 -69 0
-9602 9514 0
-5703 -49 0
-5703 -50 0
-5703 51 0
8255 -5703 0
-5755 -10 0
-5755 -11 0
-5755 12 0
8395 -5755 0
-8893 49 0
-8893 50 0
-8893 -51 0
-8893 7397 0
-5729 -64 0
-5729 -65 0
-5729 66 0
8325 -5729 0
-9436 -31 0
-9436 -32 0
-9436 -33 0
-9436 9282 0
-9231 -10 0
-9231 -11 0
-9231 -12 0
-9231 9143 0
-7378 -58 0
-7378 59 0
-7378 -60 0
-7378 6080 0
-6686 -28 0
-6686 -29 0
-6686 30 0
7610 -6686 0
-9855 -34 0
-9855 -35 0
-9855 -36 0
-9855 9767 0
-925 43 0
-925 -44 0
-925 -45 0
6491 -925 0
-9685 -52 0
-9685 53 0
-9685 -54 0
-9685 8585 0
-6006 -34 0
-6006 -35 0
-6006 -36 0
-6006 5852 0
-2663 43 0
-2663 -44 0
-2663 -45 0
9395 -2663 0
-5415 -40 0
-5415 -41 0
-5415 42 0
7857 -5415 0
-1085 -61 0
-1085 62 0
-1085 -63 0
5881 -1085 0
-1523 55 0
-1523 56 0
-1523 -57 0
6715 -1523 0
-8674 52 0
-8674 53 0
-8674 -54 0
-8674 6980 0
-6092 22 0
-6092 -23 0
-6092 -24 0
-695 -13 0
-695 -14 0
-695 15 0
9715 -695 0
-7357 -64 0
-7357 65 0
-7357 -66 0
-7357 6059 0
-9279 -19 0
-9279 20 0
-9279 -21 0
-9279 7827 0
-7804 16 0
-7804 17 0
-7804 -18 0
-7804 6352 0
-6483 -16 0
-6483 -17 0
-6483 -18 0
-6483 6329 0
-5643 -64 0
-5643 -65 0
-5643 -66 0
-5643 5445 0
-9387 -16 0
-9387 17 0
-9387 -18 0
-9387 8023 0
-5478 -37 0
-5478 -38 0
-5478 39 0
8800 -5478 0
-7979 10 0
-7979 11 0
-7979 -12 0
-7979 5647 0
-5948 -61 0
-5948 -62 0
-5948 63 0
8632 -5948 0
-9133 46 0
-9133 -47 0
-9133 -48 0
-9133 8671 0
-1084 -58 0
-1084 59 0
-1084 -60 0
5880 -1084 0
-8145 52 0
-8145 53 0
-8145 -54 0
-8145 5967 0
-8715 46 0
-8715 47 0
-8715 -48 0
-8715 7065 0
-1617 -73 0
-1617 -74 0
-1617 -75 0
8085 -1617 0
-5711 -10 0
-5711 -11 0
-5711 12 0
8307 -5711 0
-9249 -64 0
-9249 -65 0
-9249 -66 0
-9249 9161 0
-1764 52 0
-1764 -53 0
-1764 -54 0
7902 -1764 0
-2194 22 0
-2194 -23 0
-2194 -24 0
8728 -2194 0
-5773 -64 0
-5773 -65 0
-5773 66 0
8413 -5773 0
-2122 70 0
-2122 71 0
-2122 -72 0
7710 -2122 0
-7339 -10 0
-7339 11 0
-7339 -12 0
-7339 6041 0
-453 13 0
-453 -14 0
-453 -15 0
5513 -453 0
-5436 -34 0
-5436 -35 0
-5436 36 0
-7293 -70 0
-7293 71 0
-7293 -72 0
-7293 5973 0
-1336 22 0
-1336 -23 0
-1336 -24 0
7078 -1336 0
-1589 55 0
-1589 56 0
-1589 -57 0
6781 -1589 0
-5764 -37 0
-5764 -38 0
-5764 39 0
8404 -5764 0
-5889 -16 0
-5889 -17 0
-5889 18 0
8573 -5889 0
-2121 67 0
-2121 68 0
-2121 -69 0
7709 -2121 0
-1677 55 0
-1677 56 0
-1677 -57 0
6891 -1677 0
-9240 -37 0
-9240 -38 0
-9240 -39 0
-9240 9152 0
-590 -28 0
-590 -29 0
-590 30 0
9588 -590 0
-1695 43 0
-1695 44 0
-1695 -45 0
6909 -1695 0
-8202 25 0
-8202 26 0
-8202 -27 0
-8202 6816 0
-2378 -46 0
-2378 -47 0
-2378 -48 0
9264 -2378 0
-6670 -49 0
-6670 -50 0
-6670 51 0
9772 -6670 0
-6159 31 0
-6159 -32 0
-6159 -33 0
-6159 5565 0
-5932 -13 0
-5932 -14 0
-5932 15 0
8616 -5932 0
-5487 -64 0
-5487 -65 0
-5487 66 0
8809 -5487 0
-5647 -7 0
-5647 -8 0
-5647 -9 0
-1211 -43 0
-1211 44 0
-1211 -45 0
6139 -1211 0
-5782 -25 0
-5782 -26 0
-5782 -27 0
-5782 5694 0
-1004 -16 0
-1004 17 0
-1004 -18 0
5756 -1004 0
-7786 31 0
-7786 32 0
-7786 -33 0
-7786 6554 0
-1173 -61 0
-1173 -62 0
-1173 -63 0
7223 -1173 0
-8972 -25 0
-8972 -26 0
-8972 -27 0
-8972 8884 0
-7534 -67 0
-7534 -68 0
-7534 -69 0
-7534 7380 0
-9307 -34 0
-9307 35 0
-9307 -36 0
-9307 7855 0
-2453 -73 0
-2453 74 0
-2453 -75 0
8349 -2453 0
-5877 -46 0
-5877 -47 0
-5877 48 0
8539 -5877 0
-416 34 0
-416 -35 0
-416 -36 0
5454 -416 0
-8817 -22 0
-8817 -23 0
-8817 -24 0
-8817 8663 0
-1987 61 0
-1987 62 0
-1987 -63 0
7443 -1987 0
-9512 -58 0
-9512 59 0
-9512 -60 0
-9512 8258 0
-9408 -10 0
-9408 11 0
-9408 -12 0
-9408 8044 0
-1758 34 0
-1758 -35 0
-1758 -36 0
7896 -1758 0
-9067 46 0
-9067 47 0
-9067 -48 0
-9067 7725 0
-7885 64 0
-7885 65 0
-7885 -66 0
-7885 6433 0
-345 -19 0
-345 -20 0
-345 21 0
9211 -345 0
-1130 -64 0
-1130 65 0
-1130 -66 0
5948 -1130 0
-2321 -73 0
-2321 74 0
-2321 -75 0
8151 -2321 0
-309 -43 0
-309 -44 0
-309 45 0
9175 -309 0
-1943 -61 0
-1943 -62 0
-1943 -63 0
8653 -1943 0
-9796 55 0
-9796 -56 0
-9796 -57 0
-9796 9378 0
-250 -64 0
-250 -65 0
-250 66 0
9094 -250 0
-1672 40 0
-1672 41 0
-1672 -42 0
6886 -1672 0
-6167 55 0
-6167 -56 0
-6167 -57 0
-6167 5573 0
-1360 28 0
-1360 -29 0
-1360 -30 0
7146 -1360 0
-7435 -34 0
-7435 35 0
-7435 -36 0
-7435 6203 0
-6304 -67 0
-6304 -68 0
-6304 -69 0
-6304 6106 0
-7749 -52 0
-7749 -53 0
-7749 -54 0
-7749 7595 0
-7199 -46 0
-7199 -47 0
-7199 -48 0
-7199 7001 0
-9787 28 0
-9787 -29 0
-9787 -30 0
-9787 9369 0
-9537 -70 0
-9537 71 0
-9537 -72 0
-9537 8327 0
-2502 -22 0
-2502 23 0
-2502 -24 0
8486 -2502 0
-6510 -28 0
-6510 -29 0
-6510 -30 0
-6510 6356 0
-1774 16 0
-1774 -17 0
-1774 -18 0
7934 -1774 0
-7437 -40 0
-7437 41 0
-7437 -42 0
-7437 6205 0
-8343 52 0
-8343 53 0
-8343 -54 0
-8343 6275 0
-1404 28 0
-1404 29 0
-1404 -30 0
6574 -1404 0
-7689 67 0
-7689 -68 0
-7689 -69 0
-7689 7139 0
-9744 31 0
-9744 -32 0
-9744 -33 0
-9744 9282 0
-422 52 0
-422 -53 0
-422 -54 0
5460 -422 0
-566 -22 0
-566 -23 0
-566 24 0
9564 -566 0
-6199 19 0
-6199 -20 0
-6199 -21 0
-6199 5627 0
-1584 40 0
-1584 41 0
-1584 -42 0
6776 -1584 0
-7600 64 0
-7600 -65 0
-7600 -66 0
-7600 6984 0
-1548 64 0
-1548 65 0
-1548 -66 0
6740 -1548 0
-7491 -70 0
-7491 71 0
-7491 -72 0
-7491 6281 0
-129 -31 0
-129 -32 0
-129 33 0
8951 -129 0
-2323 -13 0
-2323 14 0
-2323 -15 0
8153 -2323 0
-9686 -55 0
-9686 56 0
-9686 -57 0
-9686 8586 0
-9382 -64 0
-9382 65 0
-9382 -66 0
-9382 7996 0
-9103 -22 0
-9103 -23 0
-9103 -24 0
-9103 9015 0
-8084 67 0
-8084 68 0
-8084 -69 0
-8084 6698 0
-7430 -19 0
-7430 20 0
-7430 -21 0
-7430 6198 0
-5440 -46 0
-5440 -47 0
-5440 48 0
-9677 -28 0
-9677 29 0
-9677 -30 0
-9677 8577 0
-6156 22 0
-6156 -23 0
-6156 -24 0
-6156 5562 0
-7876 37 0
-7876 38 0
-7876 -39 0
-7876 6424 0
-9295 -67 0
-9295 68 0
-9295 -69 0
-9295 7843 0
-810 -28 0
-810 -29 0
-810 30 0
9852 -810 0
-977 -67 0
-977 68 0
-977 -69 0
5729 -977 0
-389 -19 0
-389 -20 0
-389 -21 0
5801 -389 0
-7419 -52 0
-7419 53 0
-7419 -54 0
-7419 6165 0
-6318 -49 0
-6318 -50 0
-6318 51 0
9508 -6318 0
-7687 61 0
-7687 -62 0
-7687 -63 0
-7687 7137 0
-6624 -43 0
-6624 -44 0
-6624 45 0
7548 -6624 0
-462 40 0
-462 -41 0
-462 -42 0
5522 -462 0
-1506 -70 0
-1506 -71 0
-1506 -72 0
7798 -1506 0
-6172 70 0
-6172 -71 0
-6172 -72 0
-6172 5578 0
-6060 64 0
-6060 -65 0
-6060 -66 0
-6060 5422 0
-5801 -16 0
-5801 -17 0
-5801 18 0
9145 -5801 0
-9293 -61 0
-9293 62 0
-9293 -63 0
-9293 7841 0
-7523 -34 0
-7523 -35 0
-7523 -36 0
-7523 7369 0
-2337 -55 0
-2337 56 0
-2337 -57 0
8167 -2337 0
-337 -61 0
-337 -62 0
-337 63 0
9203 -337 0
-6853 70 0
-6853 -71 0
-6853 -72 0
-6853 6435 0
-5854 -37 0
-5854 -38 0
-5854 39 0
6096 -5854 0
-372 -34 0
-372 -35 0
-372 36 0
9238 -372 0
-7185 -4 0
-7185 -5 0
-7185 -6 0
-7185 6987 0
-9776 58 0
-9776 -59 0
-9776 -60 0
-9776 9314 0
-8283 70 0
-8283 71 0
-8283 -72 0
-8283 6171 0
-6222 19 0
-6222 -20 0
-6222 -21 0
-6222 5650 0
-9076 73 0
-9076 74 0
-9076 -75 0
-9076 7734 0
-6253 -52 0
-6253 -53 0
-6253 -54 0
-6253 6055 0
-7983 22 0
-7983 23 0
-7983 -24 0
-7983 5651 0
-6925 -22 0
-6925 23 0
-6925 -24 0
-6925 5693 0
-437 31 0
-437 -32 0
-437 -33 0
5475 -437 0
-7682 46 0
-7682 -47 0
-7682 -48 0
-7682 7132 0
-7525 -40 0
-7525 -41 0
-7525 -42 0
-7525 7371 0
-6398 -25 0
-6398 -26 0
-6398 27 0
9412 -6398 0
-9721 -28 0
-9721 -29 0
-9721 -30 0
-9721 9633 0
-6391 -70 0
-6391 -71 0
-6391 72 0
9383 -6391 0
-9288 -46 0
-9288 47 0
-9288 -48 0
-9288 7836 0
-8569 70 0
-8569 -71 0
-8569 -72 0
-8569 8041 0
-7813 43 0
-7813 44 0
-7813 -45 0
-7813 6361 0
-9088 43 0
-9088 44 0
-9088 -45 0
-9088 7768 0
-7518 -19 0
-7518 -20 0
-7518 -21 0
-7518 7364 0
-978 -70 0
-978 71 0
-978 -72 0
5730 -978 0
-5592 -49 0
-5592 -50 0
-5592 -51 0
-5592 5394 0
-1505 -67 0
-1505 -68 0
-1505 -69 0
7797 -1505 0
-9730 -55 0
-9730 -56 0
-9730 -57 0
-9730 9642 0
-8019 -70 0
-8019 -71 0
-8019 -72 0
-8019 7821 0
-1663 13 0
-1663 14 0
-1663 -15 0
6877 -1663 0
-6218 7 0
-6218 -8 0
-6218 -9 0
-6218 5646 0
-6571 -16 0
-6571 -17 0
-6571 18 0
7451 -6571 0
-171 -25 0
-171 -26 0
-171 -27 0
5363 -171 0
-1857 67 0
-1857 68 0
-1857 -69 0
7269 -1857 0
-1292 22 0
-1292 -23 0
-1292 -24 0
7012 -1292 0
-2421 -43 0
-2421 44 0
-2421 -45 0
8295 -2421 0
-378 -52 0
-378 -53 0
-378 54 0
9244 -378 0
-7300 -25 0
-7300 26 0
-7300 -27 0
-7300 6002 0
-1735 31 0
-1735 -32 0
-1735 -33 0
7873 -1735 0
-551 -43 0
-551 -44 0
-551 45 0
9549 -551 0
-9637 -37 0
-9637 38 0
-9637 -39 0
-9637 8471 0
-2716 -70 0
-2716 -71 0
-2716 -72 0
9756 -2716 0
-1080 -46 0
-1080 47 0
-1080 -48 0
5876 -1080 0
-8073 34 0
-8073 35 0
-8073 -36 0
-8073 6687 0
-7372 -40 0
-7372 41 0
-7372 -42 0
-7372 6074 0
-9430 -13 0
-9430 -14 0
-9430 -15 0
-9430 9276 0
-5886 -73 0
-5886 -74 0
-5886 75 0
8548 -5886 0
-7130 -37 0
-7130 38 0
-7130 -39 0
-7130 5656 0
-82 -22 0
-82 -23 0
-82 24 0
8904 -82 0
-9819 58 0
-9819 -59 0
-9819 -60 0
-9819 9423 0
-1661 73 0
-1661 74 0
-1661 -75 0
6875 -1661 0
-9046 49 0
-9046 50 0
-9046 -51 0
-9046 7682 0
-2569 -25 0
-2569 26 0
-2569 -27 0
8597 -2569 0
-2332 -40 0
-2332 41 0
-2332 -42 0
8162 -2332 0
-2715 -67 0
-2715 -68 0
-2715 -69 0
9755 -2715 0
-9142 73 0
-9142 -74 0
-9142 -75 0
-9142 8680 0
-8622 -28 0
-8622 -29 0
-8622 -30 0
-8622 8468 0
-6996 -28 0
-6996 29 0
-6996 -30 0
-8075 40 0
-8075 41 0
-8075 -42 0
-8075 6689 0
-9446 -61 0
-9446 -62 0
-9446 -63 0
-9446 9292 0
-9323 -22 0
-9323 23 0
-9323 -24 0
-9323 7915 0
-2031 61 0
-2031 62 0
-2031 -63 0
7531 -2031 0
-2283 -25 0
-2283 26 0
-2283 -27 0
8113 -2283 0
-8724 73 0
-8724 74 0
-8724 -75 0
-8724 7074 0
-9706 -49 0
-9706 50 0
-9706 -51 0
-9706 8628 0
-2382 -58 0
-2382 -59 0
-2382 -60 0
9268 -2382 0
-8386 -49 0
-8386 -50 0
-8386 -51 0
-8386 8232 0
-8068 19 0
-8068 20 0
-8068 -21 0
-8068 6682 0
-7446 -67 0
-7446 68 0
-7446 -69 0
-7446 6214 0
-6811 7 0
-6811 -8 0
-6811 -9 0
-6811 6349 0
-1265 -73 0
-1265 74 0
-1265 -75 0
6259 -1265 0
-9665 -58 0
-9665 59 0
-9665 -60 0
-9665 8543 0
-1575 13 0
-1575 14 0
-1575 -15 0
6767 -1575 0
-467 55 0
-467 -56 0
-467 -57 0
5527 -467 0
-1858 70 0
-1858 71 0
-1858 -72 0
7270 -1858 0
-8780 43 0
-8780 44 0
-8780 -45 0
-8780 7174 0
-7420 -55 0
-7420 56 0
-7420 -57 0
-7420 6166 0
-9646 -64 0
-9646 65 0
-9646 -66 0
-9646 8480 0
-6213 61 0
-6213 -62 0
-6213 -63 0
-6213 5641 0
-6933 -46 0
-6933 47 0
-6933 -48 0
-6933 5701 0
-7470 -70 0
-7470 71 0
-7470 -72 0
-7470 6238 0
-6977 -40 0
-6977 41 0
-6977 -42 0
-6977 5437 0
-2383 -61 0
-2383 -62 0
-2383 -63 0
9269 -2383 0
-7186 -7 0
-7186 -8 0
-7186 -9 0
-7186 6988 0
-914 76 0
-914 -77 0
-914 -78 0
6458 -914 0
-2030 58 0
-2030 59 0
-2030 -60 0
7530 -2030 0
-809 -25 0
-809 -26 0
-809 27 0
9851 -809 0
-989 -37 0
-989 38 0
-989 -39 0
5741 -989 0
-2600 -52 0
-2600 -53 0
-2600 -54 0
9618 -2600 0
-1791 67 0
-1791 -68 0
-1791 -69 0
7951 -1791 0
-6293 -34 0
-6293 -35 0
-6293 -36 0
-6293 6095 0
-1640 76 0
-1640 77 0
-1640 -78 0
6854 -1640 0
-8921 70 0
-8921 71 0
-8921 -72 0
-8921 7469 0
-2227 55 0
-2227 -56 0
-2227 -57 0
8783 -2227 0
-5524 -43 0
-5524 -44 0
-5524 45 0
8846 -5524 0
-8576 22 0
-8576 -23 0
-8576 -24 0
-8576 8048 0
-7411 -28 0
-7411 29 0
-7411 -30 0
-7411 6157 0
-9506 -40 0
-9506 41 0
-9506 -42 0
-9506 8252 0
-1982 46 0
-1982 47 0
-1982 -48 0
7438 -1982 0
-739 -13 0
-739 -14 0
-739 15 0
9781 -739 0
-6097 37 0
-6097 -38 0
-6097 -39 0
-1509 13 0
-1509 14 0
-1509 -15 0
6701 -1509 0
-1398 -76 0
-1398 -77 0
-1398 -78 0
7580 -1398 0
-7780 13 0
-7780 14 0
-7780 -15 0
-7780 6548 0
-709 -55 0
-709 -56 0
-709 57 0
9729 -709 0
-1168 -46 0
-1168 -47 0
-1168 -48 0
7218 -1168 0
-5938 -31 0
-5938 -32 0
-5938 33 0
8622 -5938 0
-6208 46 0
-6208 -47 0
-6208 -48 0
-6208 5636 0
-1873 49 0
-1873 50 0
-1873 -51 0
7285 -1873 0
-6245 -28 0
-6245 -29 0
-6245 -30 0
-6245 6047 0
-8587 55 0
-8587 -56 0
-8587 -57 0
-8587 8059 0
-7495 -13 0
-7495 14 0
-7495 -15 0
-7495 6285 0
-6032 49 0
-6032 -50 0
-6032 -51 0
-6032 5394 0
-5744 -43 0
-5744 -44 0
-5744 45 0
8362 -5744 0
-2001 37 0
-2001 38 0
-2001 -39 0
7479 -2001 0
-289 -49 0
-289 -50 0
-289 -51 0
5679 -289 0
-7796 61 0
-7796 62 0
-7796 -63 0
-7796 6564 0
-6254 -55 0
-6254 -56 0
-6254 -57 0
-6254 6056 0
-9189 16 0
-9189 -17 0
-9189 -18 0
-9189 8793 0
-651 -13 0
-651 -14 0
-651 15 0
9671 -651 0
-7054 -10 0
-7054 11 0
-7054 -12 0
-7054 5558 0
-9729 -52 0
-9729 -53 0
-9729 -54 0
-9729 9641 0
-1900 64 0
-1900 65 0
-1900 -66 0
7312 -1900 0
-1797 19 0
-1797 -20 0
-1797 -21 0
8001 -1797 0
-8527 7 0
-8527 -8 0
-8527 -9 0
-8527 7977 0
-6648 -49 0
-6648 -50 0
-6648 -51 0
-6648 6560 0
-1472 34 0
-1472 35 0
-1472 -36 0
6642 -1472 0
-9120 -73 0
-9120 -74 0
-9120 -75 0
-9120 9032 0
-1792 70 0
-1792 -71 0
-1792 -72 0
7952 -1792 0
-9830 25 0
-9830 -26 0
-9830 -27 0
-9830 9456 0
-1869 37 0
-1869 38 0
-1869 -39 0
7281 -1869 0
-851 19 0
-851 -20 0
-851 -21 0
6373 -851 0
-1827 -43 0
-1827 -44 0
-1827 -45 0
8427 -1827 0
-6051 37 0
-6051 -38 0
-6051 -39 0
-6051 5413 0
-2634 22 0
-2634 -23 0
-2634 -24 0
9344 -2634 0
-172 -28 0
-172 -29 0
-172 -30 0
5364 -172 0
-9331 -46 0
-9331 47 0
-9331 -48 0
-9331 7923 0
-9738 13 0
-9738 -14 0
-9738 -15 0
-9738 9276 0
-2005 49 0
-2005 50 0
-2005 -51 0
7483 -2005 0
-7943 40 0
-7943 41 0
-7943 -42 0
-7943 6513 0
-285 -37 0
-285 -38 0
-285 -39 0
5675 -285 0
-7615 40 0
-7615 -41 0
-7615 -42 0
-7615 6999 0
-1441 73 0
-1441 74 0
-1441 -75 0
6611 -1441 0
-7936 19 0
-7936 20 0
-7936 -21 0
-7936 6506 0
-2465 -43 0
-2465 44 0
-2465 -45 0
8383 -2465 0
-9164 70 0
-9164 -71 0
-9164 -72 0
-9164 8702 0
-6453 -58 0
-6453 -59 0
-6453 60 0
9467 -6453 0
-1022 -70 0
-1022 71 0
-1022 -72 0
5774 -1022 0
-9866 -67 0
-9866 -68 0
-9866 -69 0
-9866 9778 0
-1284 -64 0
-1284 -65 0
-1284 -66 0
7356 -1284 0
-5634 -37 0
-5634 -38 0
-5634 -39 0
-5634 5436 0
-5419 -52 0
-5419 -53 0
-5419 54 0
7861 -5419 0
-2594 -34 0
-2594 -35 0
-2594 -36 0
9612 -2594 0
-8579 31 0
-8579 -32 0
-8579 -33 0
-8579 8051 0
-9591 -34 0
-9591 -35 0
-9591 -36 0
-9591 9503 0
-8437 70 0
-8437 -71 0
-8437 -72 0
-8437 7821 0
-8033 -43 0
-8033 -44 0
-8033 -45 0
-8033 7835 0
-6217 4 0
-6217 -5 0
-6217 -6 0
-6217 5645 0
-1021 -67 0
-1021 68 0
-1021 -69 0
5773 -1021 0
-336 -58 0
-336 -59 0
-336 60 0
9202 -336 0
-8991 16 0
-8991 17 0
-8991 -18 0
-8991 7583 0
-9465 -49 0
-9465 -50 0
-9465 -51 0
-9465 9311 0
-6355 -22 0
-6355 -23 0
-6355 24 0
6993 -6355 0
-7714 10 0
-7714 -11 0
-7714 -12 0
-7714 7186 0
-7190 -19 0
-7190 -20 0
-7190 -21 0
-7190 6992 0
-9593 -40 0
-9593 -41 0
-9593 -42 0
-9593 9505 0
-2570 -28 0
-2570 29 0
-2570 -30 0
8598 -2570 0
-9318 -67 0
-9318 68 0
-9318 -69 0
-9318 7866 0
-704 -40 0
-704 -41 0
-704 42 0
9724 -704 0
-1478 52 0
-1478 53 0
-1478 -54 0
6648 -1478 0
-993 -49 0
-993 50 0
-993 -51 0
5745 -993 0
-8298 49 0
-8298 50 0
-8298 -51 0
-8298 6208 0
-9754 61 0
-9754 -62 0
-9754 -63 0
-9754 9292 0
-6427 -43 0
-6427 -44 0
-6427 45 0
7131 -6427 0
-7941 34 0
-7941 35 0
-7941 -36 0
-7941 6511 0
-8463 10 0
-8463 -11 0
-8463 -12 0
-8463 7847 0
-2149 -19 0
-2149 -20 0
-2149 -21 0
8991 -2149 0
-2104 16 0
-2104 17 0
-2104 -18 0
7692 -2104 0
-8834 -73 0
-8834 -74 0
-8834 -75 0
-8834 8680 0
-1938 -46 0
-1938 -47 0
-1938 -48 0
8648 -1938 0
-2284 -28 0
-2284 29 0
-2284 -30 0
8114 -2284 0
-2222 40 0
-2222 -41 0
-2222 -42 0
8778 -2222 0
-9586 -19 0
-9586 -20 0
-9586 -21 0
-9586 9498 0
-7902 49 0
-7902 50 0
-7902 -51 0
-7902 6472 0
-9410 -16 0
-9410 17 0
-9410 -18 0
-9410 8046 0
-9175 40 0
-9175 -41 0
-9175 -42 0
-9175 8757 0
-6921 -10 0
-6921 11 0
-6921 -12 0
-6921 5689 0
-399 -49 0
-399 -50 0
-399 -51 0
5811 -399 0
-7410 -25 0
-7410 26 0
-7410 -27 0
-7410 6156 0
-1945 -67 0
-1945 -68 0
-1945 -69 0
8655 -1945 0
-6117 40 0
-6117 -41 0
-6117 -42 0
-6117 5501 0
-2368 -16 0
-2368 -17 0
-2368 -18 0
9254 -2368 0
-2552 -40 0
-2552 41 0
-2552 -42 0
8558 -2552 0
-5420 -55 0
-5420 -56 0
-5420 57 0
7862 -5420 0
-9168 19 0
-9168 -20 0
-9168 -21 0
-9168 8750 0
-9470 -64 0
-9470 -65 0
-9470 -66 0
-9470 9316 0
-6592 -13 0
-6592 -14 0
-6592 15 0
7494 -6592 0
-6681 -13 0
-6681 -14 0
-6681 15 0
7605 -6681 0
-6110 19 0
-6110 -20 0
-6110 -21 0
-6110 5494 0
-8307 7 0
-8307 8 0
-8307 -9 0
-8307 6217 0
-1014 -46 0
-1014 47 0
-1014 -48 0
5766 -1014 0
-7699 34 0
-7699 -35 0
-7699 -36 0
-7699 7171 0
-6758 -49 0
-6758 -50 0
-6758 51 0
7770 -6758 0
-5776 -73 0
-5776 -74 0
-5776 75 0
8416 -5776 0
-1560 34 0
-1560 35 0
-1560 -36 0
6752 -1560 0
-5618 -58 0
-5618 -59 0
-5618 -60 0
-5618 5420 0
-9348 -31 0
-9348 32 0
-9348 -33 0
-9348 7962 0
-9558 -67 0
-9558 68 0
-9558 -69 0
-9558 8370 0
-9210 13 0
-9210 -14 0
-9210 -15 0
-9210 8836 0
-9252 -73 0
-9252 -74 0
-9252 -75 0
-9252 9164 0
-6244 -25 0
-6244 -26 0
-6244 -27 0
-6244 6046 0
-8684 13 0
-8684 14 0
-8684 -15 0
-8684 6990 0
-8958 49 0
-8958 50 0
-8958 -51 0
-8958 7550 0
-218 -34 0
-218 -35 0
-218 36 0
9062 -218 0
-7701 40 0
-7701 -41 0
-7701 -42 0
-7701 7173 0
-6608 -61 0
-6608 -62 0
-6608 63 0
7510 -6608 0
-506 -40 0
-506 -41 0
-506 -42 0
6028 -506 0
-1424 22 0
-1424 23 0
-1424 -24 0
6594 -1424 0
-8586 52 0
-8586 -53 0
-8586 -54 0
-8586 8058 0
-2398 -40 0
-2398 41 0
-2398 -42 0
8272 -2398 0
-2527 -31 0
-2527 32 0
-2527 -33 0
8511 -2527 0
-2490 -52 0
-2490 -53 0
-2490 -54 0
9486 -2490 0
-2651 73 0
-2651 -74 0
-2651 -75 0
9361 -2651 0
-9226 61 0
-9226 -62 0
-9226 -63 0
-9226 8852 0
-7645 70 0
-7645 -71 0
-7645 -72 0
-7645 7073 0
-9173 34 0
-9173 -35 0
-9173 -36 0
-9173 8755 0
-9840 55 0
-9840 -56 0
-9840 -57 0
-9840 9466 0
-6115 34 0
-6115 -35 0
-6115 -36 0
-6115 5499 0
-5565 -28 0
-5565 -29 0
-5565 30 0
5653 -5565 0
-6407 -52 0
-6407 -53 0
-6407 54 0
9421 -6407 0
-1946 -70 0
-1946 -71 0
-1946 -72 0
8656 -1946 0
-8680 70 0
-8680 71 0
-8680 -72 0
-8680 6986 0
-7694 19 0
-7694 -20 0
-7694 -21 0
-7694 7166 0
-9577 -58 0
-9577 59 0
-9577 -60 0
-9577 8411 0
-1098 -34 0
-1098 35 0
-1098 -36 0
5894 -1098 0
-9831 28 0
-9831 -29 0
-9831 -30 0
-9831 9457 0
-5490 -73 0
-5490 -74 0
-5490 75 0
8812 -5490 0
-6261 -7 0
-6261 -8 0
-6261 -9 0
-6261 6063 0
-545 -25 0
-545 -26 0
-545 27 0
9543 -545 0
-6541 -58 0
-6541 -59 0
-6541 60 0
9643 -6541 0
-7802 10 0
-7802 11 0
-7802 -12 0
-7802 6350 0
-5379 -70 0
-5379 -71 0
-5379 72 0
8899 -5379 0
-7888 73 0
-7888 74 0
-7888 -75 0
-7888 6436 0
-7042 -43 0
-7042 44 0
-7042 -45 0
-7042 5546 0
-8580 34 0
-8580 -35 0
-8580 -36 0
-8580 8052 0
-2460 -28 0
-2460 29 0
-2460 -30 0
8378 -2460 0
-7309 -52 0
-7309 53 0
-7309 -54 0
-7309 6011 0
-1566 52 0
-1566 53 0
-1566 -54 0
6758 -1566 0
-6192 67 0
-6192 -68 0
-6192 -69 0
-6192 5620 0
-2274 -64 0
-2274 -65 0
-2274 -66 0
9138 -2274 0
-6712 -43 0
-6712 -44 0
-6712 45 0
7680 -6712 0
-9319 -10 0
-9319 11 0
-9319 -12 0
-9319 7911 0
-7555 -61 0
-7555 -62 0
-7555 -63 0
-7555 7401 0
-6472 -46 0
-6472 -47 0
-6472 48 0
7198 -6472 0
-6018 -70 0
-6018 -71 0
-6018 -72 0
-6018 5864 0
-5953 -7 0
-5953 -8 0
-5953 9 0
6283 -5953 0
-8742 61 0
-8742 62 0
-8742 -63 0
-8742 7114 0
-2403 -55 0
-2403 56 0
-2403 -57 0
8277 -2403 0
-511 -55 0
-511 -56 0
-511 -57 0
6033 -511 0
-1990 70 0
-1990 71 0
-1990 -72 0
7446 -1990 0
-2415 -25 0
-2415 26 0
-2415 -27 0
8289 -2415 0
-1822 -28 0
-1822 -29 0
-1822 -30 0
8422 -1822 0
-7092 -61 0
-7092 62 0
-7092 -63 0
-7092 5618 0
-177 -43 0
-177 -44 0
-177 -45 0
5369 -177 0
-1176 -70 0
-1176 -71 0
-1176 -72 0
7226 -1176 0
-7270 -67 0
-7270 68 0
-7270 -69 0
-7270 5928 0
-5662 -52 0
-5662 -53 0
-5662 -54 0
-8173 70 0
-8173 71 0
-8173 -72 0
-8173 6017 0
-8726 13 0
-8726 14 0
-8726 -15 0
-8726 7098 0
-2289 -43 0
-2289 44 0
-2289 -45 0
8119 -2289 0
-1989 67 0
-1989 68 0
-1989 -69 0
7445 -1989 0
-2175 31 0
-2175 -32 0
-2175 -33 0
8709 -2175 0
-1175 -67 0
-1175 -68 0
-1175 -69 0
7225 -1175 0
-395 -37 0
-395 -38 0
-395 -39 0
5807 -395 0
-1104 -52 0
-1104 53 0
-1104 -54 0
5900 -1104 0
-7076 -13 0
-7076 14 0
-7076 -15 0
-7076 5602 0
-7966 40 0
-7966 41 0
-7966 -42 0
-7966 5634 0
-7550 -46 0
-7550 -47 0
-7550 -48 0
-7550 7396 0
-6477 -61 0
-6477 -62 0
-6477 63 0
7203 -6477 0
-364 -76 0
-364 -77 0
-364 78 0
9230 -364 0
-9641 -49 0
-9641 50 0
-9641 -51 0
-9641 8475 0
-2575 -43 0
-2575 44 0
-2575 -45 0
8603 -2575 0
-224 -52 0
-224 -53 0
-224 54 0
9068 -224 0
-9032 70 0
-9032 71 0
-9032 -72 0
-9032 7624 0
-5994 -67 0
-5994 -68 0
-5994 -69 0
-5994 5840 0
-7391 -28 0
-7391 29 0
-7391 -30 0
-7391 6093 0
-2351 -31 0
-2351 32 0
-2351 -33 0
8181 -2351 0
-2484 -34 0
-2484 -35 0
-2484 -36 0
9480 -2484 0
-5460 -49 0
-5460 -50 0
-5460 51 0
8760 -5460 0
-145 -13 0
-145 -14 0
-145 15 0
8967 -145 0
-1784 46 0
-1784 -47 0
-1784 -48 0
7944 -1784 0
-2119 61 0
-2119 62 0
-2119 -63 0
7707 -2119 0
-2557 -55 0
-2557 56 0
-2557 -57 0
8563 -2557 0
-7612 31 0
-7612 -32 0
-7612 -33 0
-7612 6996 0
-7768 -40 0
-7768 -41 0
-7768 -42 0
-7768 7614 0
-6416 -10 0
-6416 -11 0
-6416 12 0
7120 -6416 0
-8515 40 0
-8515 -41 0
-8515 -42 0
-8515 7965 0
-616 -40 0
-616 -41 0
-616 -42 0
6314 -616 0
-6872 61 0
-6872 -62 0
-6872 -63 0
-6872 6476 0
-2118 58 0
-2118 59 0
-2118 -60 0
7706 -2118 0
-5922 -46 0
-5922 -47 0
-5922 48 0
6230 -5922 0
-1644 22 0
-1644 23 0
-1644 -24 0
6858 -1644 0
-1912 34 0
-1912 35 0
-1912 -36 0
7324 -1912 0
-2094 52 0
-2094 53 0
-2094 -54 0
7660 -2094 0
-7330 -49 0
-7330 -50 0
-7330 -51 0
-7330 7242 0
-1248 -22 0
-1248 23 0
-1248 -24 0
6242 -1248 0
-7725 43 0
-7725 -44 0
-7725 -45 0
-7725 7197 0
-2708 -46 0
-2708 -47 0
-2708 -48 0
9748 -2708 0
-7016 -31 0
-7016 32 0
-7016 -33 0
-7016 5498 0
-6888 43 0
-6888 -44 0
-6888 -45 0
-6888 6514 0
-797 -55 0
-797 -56 0
-797 57 0
9839 -797 0
-1088 -70 0
-1088 71 0
-1088 -72 0
5884 -1088 0
-6901 -16 0
-6901 -17 0
-6901 -18 0
-6901 6813 0
-2155 -37 0
-2155 -38 0
-2155 -39 0
8997 -2155 0
-7289 -58 0
-7289 59 0
-7289 -60 0
-7289 5969 0
-7607 16 0
-7607 -17 0
-7607 -18 0
-7607 6991 0
-815 -43 0
-815 -44 0
-815 45 0
9857 -815 0
-8654 61 0
-8654 62 0
-8654 -63 0
-8654 7246 0
-8508 19 0
-8508 -20 0
-8508 -21 0
-8508 7958 0
-322 -16 0
-322 -17 0
-322 18 0
9188 -322 0
-9328 -37 0
-9328 38 0
-9328 -39 0
-9328 7920 0
-7386 -13 0
-7386 14 0
-7386 -15 0
-7386 6088 0
-1185 -31 0
-1185 32 0
-1185 -33 0
6113 -1185 0
-1309 73 0
-1309 -74 0
-1309 -75 0
7029 -1309 0
-1087 -67 0
-1087 68 0
-1087 -69 0
5883 -1087 0
-8621 -25 0
-8621 -26 0
-8621 -27 0
-8621 8467 0
-1713 -31 0
-1713 -32 0
-1713 -33 0
8203 -1713 0
-8098 40 0
-8098 41 0
-8098 -42 0
-8098 5854 0
-279 -19 0
-279 -20 0
-279 -21 0
5669 -279 0
-5927 -61 0
-5927 -62 0
-5927 63 0
6235 -5927 0
-9337 -64 0
-9337 65 0
-9337 -66 0
-9337 7929 0
-8022 -10 0
-8022 -11 0
-8022 -12 0
-8022 7824 0
-857 37 0
-857 -38 0
-857 -39 0
6379 -857 0
-8638 13 0
-8638 14 0
-8638 -15 0
-8638 7230 0
-1863 19 0
-1863 20 0
-1863 -21 0
7275 -1863 0
-958 -76 0
-958 -77 0
-958 -78 0
6810 -958 0
-6778 -43 0
-6778 -44 0
-6778 -45 0
-6778 6690 0
-6505 -13 0
-6505 -14 0
-6505 -15 0
-6505 6351 0
-9720 -25 0
-9720 -26 0
-9720 -27 0
-9720 9632 0
-6399 -28 0
-6399 -29 0
-6399 30 0
9413 -6399 0
-5669 -16 0
-5669 -17 0
-5669 18 0
9013 -5669 0
-1325 55 0
-1325 -56 0
-1325 -57 0
7045 -1325 0
-99 -73 0
-99 -74 0
-99 75 0
8921 -99 0
-9839 52 0
-9839 -53 0
-9839 -54 0
-9839 9465 0
-1807 49 0
-1807 -50 0
-1807 -51 0
8011 -1807 0
-827 -13 0
-827 -14 0
-827 -15 0
6657 -827 0
-262 -34 0
-262 -35 0
-262 36 0
9106 -262 0
-2080 76 0
-2080 77 0
-2080 -78 0
7646 -2080 0
-1850 46 0
-1850 47 0
-1850 -48 0
7262 -1850 0
-6408 -55 0
-6408 -56 0
-6408 57 0
9422 -6408 0
-8513 34 0
-8513 -35 0
-8513 -36 0
-8513 7963 0
-5838 -58 0
-5838 -59 0
-5838 60 0
8478 -5838 0
-6856 13 0
-6856 -14 0
-6856 -15 0
-6856 6460 0
-9461 -37 0
-9461 -38 0
-9461 -39 0
-9461 9307 0
-7310 -55 0
-7310 56 0
-7310 -57 0
-7310 6012 0
-2459 -25 0
-2459 26 0
-2459 -27 0
8377 -2459 0
-8926 19 0
-8926 20 0
-8926 -21 0
-8926 7496 0
-8122 49 0
-8122 50 0
-8122 -51 0
-8122 5922 0
-1320 40 0
-1320 -41 0
-1320 -42 0
7040 -1320 0
-7065 -43 0
-7065 44 0
-7065 -45 0
-7065 5569 0
-1995 19 0
-1995 20 0
-1995 -21 0
7473 -1995 0
-7208 -13 0
-7208 14 0
-7208 -15 0
-7208 5822 0
-6974 -31 0
-6974 32 0
-6974 -33 0
-6974 5434 0
-7174 -40 0
-7174 -41 0
-7174 -42 0
-7174 6976 0
-546 -28 0
-546 -29 0
-546 30 0
9544 -546 0
-8364 46 0
-8364 47 0
-8364 -48 0
-8364 6296 0
-7301 -28 0
-7301 29 0
-7301 -30 0
-7301 6003 0
-8178 -19 0
-8178 -20 0
-8178 -21 0
-8178 8090 0
-1498 -46 0
-1498 -47 0
-1498 -48 0
7790 -1498 0
-861 49 0
-861 -50 0
-861 -51 0
6383 -861 0
-8853 -61 0
-8853 -62 0
-8853 -63 0
-8853 8699 0
-6969 -16 0
-6969 17 0
-6969 -18 0
-6969 5429 0
-8791 7 0
-8791 8 0
-8791 -9 0
-8791 7185 0
-2416 -28 0
-2416 29 0
-2416 -30 0
8290 -2416 0
-1821 -25 0
-1821 -26 0
-1821 -27 0
8421 -1821 0
-8185 -40 0
-8185 -41 0
-8185 -42 0
-8185 8097 0
-8606 -49 0
-8606 -50 0
-8606 -51 0
-8606 8452 0
-9260 -31 0
-9260 32 0
-9260 -33 0
-9260 8094 0
-1803 37 0
-1803 -38 0
-1803 -39 0
8007 -1803 0
-9533 -58 0
-9533 59 0
-9533 -60 0
-9533 8323 0
-6930 -37 0
-6930 38 0
-6930 -39 0
-6930 5698 0
-1443 13 0
-1443 14 0
-1443 -15 0
6613 -1443 0
-8933 40 0
-8933 41 0
-8933 -42 0
-8933 7503 0
-2088 34 0
-2088 35 0
-2088 -36 0
7654 -2088 0
-1918 52 0
-1918 53 0
-1918 -54 0
7330 -1918 0
-7660 49 0
-7660 -50 0
-7660 -51 0
-7660 7110 0
-8758 40 0
-8758 41 0
-8758 -42 0
-8758 7130 0
-5560 -13 0
-5560 -14 0
-5560 15 0
5648 -5560 0
-6055 49 0
-6055 -50 0
-6055 -51 0
-6055 5417 0
-2241 31 0
-2241 -32 0
-2241 -33 0
8819 -2241 0
-983 -19 0
-983 20 0
-983 -21 0
5735 -983 0
-792 -40 0
-792 -41 0
-792 42 0
9834 -792 0
-5502 -40 0
-5502 -41 0
-5502 42 0
7988 -5502 0
-8931 34 0
-8931 35 0
-8931 -36 0
-8931 7501 0
-8369 61 0
-8369 62 0
-8369 -63 0
-8369 6301 0
-268 -52 0
-268 -53 0
-268 54 0
9112 -268 0
-8868 43 0
-8868 44 0
-8868 -45 0
-8868 7372 0
-8848 -46 0
-8848 -47 0
-8848 -48 0
-8848 8694 0
-6939 -64 0
-6939 65 0
-6939 -66 0
-6939 5707 0
-8183 -34 0
-8183 -35 0
-8183 -36 0
-8183 8095 0
-7360 -73 0
-7360 74 0
-7360 -75 0
-7360 6062 0
-7487 -58 0
-7487 59 0
-7487 -60 0
-7487 6277 0
-8689 28 0
-8689 29 0
-8689 -30 0
-8689 6995 0
-970 -46 0
-970 47 0
-970 -48 0
5722 -970 0
-8395 -7 0
-8395 -8 0
-8395 -9 0
-8395 8241 0
-1966 64 0
-1966 65 0
-1966 -66 0
7422 -1966 0
-5732 -73 0
-5732 -74 0
-5732 75 0
8328 -5732 0
-2016 16 0
-2016 17 0
-2016 -18 0
7516 -2016 0
-2159 -49 0
-2159 -50 0
-2159 -51 0
9001 -2159 0
-621 -55 0
-621 -56 0
-621 -57 0
6319 -621 0
-7224 -61 0
-7224 62 0
-7224 -63 0
-7224 5838 0
-9121 10 0
-9121 -11 0
-9121 -12 0
-9121 8659 0
-583 -73 0
-583 -74 0
-583 75 0
9581 -583 0
-9358 -61 0
-9358 62 0
-9358 -63 0
-9358 7972 0
-8371 67 0
-8371 68 0
-8371 -69 0
-8371 6303 0
-949 -49 0
-949 -50 0
-949 -51 0
6801 -949 0
-9377 -49 0
-9377 50 0
-9377 -51 0
-9377 7991 0
-9108 -37 0
-9108 -38 0
-9108 -39 0
-9108 9020 0
-8617 -13 0
-8617 -14 0
-8617 -15 0
-8617 8463 0
-6463 -19 0
-6463 -20 0
-6463 21 0
7189 -6463 0
-888 64 0
-888 -65 0
-888 -66 0
6410 -888 0
-7871 22 0
-7871 23 0
-7871 -24 0
-7871 6419 0
-7351 -46 0
-7351 47 0
-7351 -48 0
-7351 6053 0
-8524 67 0
-8524 -68 0
-8524 -69 0
-8524 7974 0
-6737 -52 0
-6737 -53 0
-6737 54 0
7727 -6737 0
-1502 -58 0
-1502 -59 0
-1502 -60 0
7794 -1502 0
-6509 -25 0
-6509 -26 0
-6509 -27 0
-6509 6355 0
-5636 -43 0
-5636 -44 0
-5636 -45 0
-5636 5438 0
-7921 37 0
-7921 38 0
-7921 -39 0
-7921 5567 0
-105 -25 0
-105 -26 0
-105 27 0
8927 -105 0
-2071 49 0
-2071 50 0
-2071 -51 0
7637 -2071 0
-1816 76 0
-1816 -77 0
-1816 -78 0
8020 -1816 0
-5723 -46 0
-5723 -47 0
-5723 48 0
8319 -5723 0
-8703 10 0
-8703 11 0
-8703 -12 0
-8703 7053 0
-6849 58 0
-6849 -59 0
-6849 -60 0
-6849 6431 0
-8279 58 0
-8279 59 0
-8279 -60 0
-8279 6167 0
-7595 49 0
-7595 -50 0
-7595 -51 0
-7595 6979 0
-607 -13 0
-607 -14 0
-607 -15 0
6305 -607 0
-8855 -67 0
-8855 -68 0
-8855 -69 0
-8855 8701 0
-2142 64 0
-2142 65 0
-2142 -66 0
7752 -2142 0
-7541 -19 0
-7541 -20 0
-7541 -21 0
-7541 7387 0
-8212 55 0
-8212 56 0
-8212 -57 0
-8212 6826 0
-7716 16 0
-7716 -17 0
-7716 -18 0
-7716 7188 0
-895 19 0
-895 -20 0
-895 -21 0
6439 -895 0
-8203 28 0
-8203 29 0
-8203 -30 0
-8203 6817 0
-1206 -28 0
-1206 29 0
-1206 -30 0
6134 -1206 0
-974 -58 0
-974 59 0
-974 -60 0
5726 -974 0
-7561 16 0
-7561 -17 0
-7561 -18 0
-7561 6945 0
-836 -40 0
-836 -41 0
-836 -42 0
6666 -836 0
-5407 -16 0
-5407 -17 0
-5407 18 0
7849 -5407 0
-1621 19 0
-1621 20 0
-1621 -21 0
6835 -1621 0
-2044 -34 0
-2044 -35 0
-2044 -36 0
8864 -2044 0
-2615 31 0
-2615 -32 0
-2615 -33 0
9325 -2615 0
-1690 28 0
-1690 29 0
-1690 -30 0
6904 -1690 0
-5783 -28 0
-5783 -29 0
-5783 -30 0
-5783 5695 0
-5865 -10 0
-5865 -11 0
-5865 12 0
8527 -5865 0
-9117 -64 0
-9117 -65 0
-9117 -66 0
-9117 9029 0
-2519 -73 0
-2519 74 0
-2519 -75 0
8503 -2519 0
-9216 31 0
-9216 -32 0
-9216 -33 0
-9216 8842 0
-8973 -28 0
-8973 -29 0
-8973 -30 0
-8973 8885 0
-8565 58 0
-8565 -59 0
-8565 -60 0
-8565 8037 0
-9342 -13 0
-9342 14 0
-9342 -15 0
-9342 7956 0
-5612 -40 0
-5612 -41 0
-5612 -42 0
-5612 5414 0
-6387 -58 0
-6387 -59 0
-6387 60 0
9379 -6387 0
-1972 16 0
-1972 17 0
-1972 -18 0
7428 -1972 0
-5412 -31 0
-5412 -32 0
-5412 33 0
7854 -5412 0
-2304 -22 0
-2304 23 0
-2304 -24 0
8134 -2304 0
-6160 34 0
-6160 -35 0
-6160 -36 0
-6160 5566 0
-8982 -55 0
-8982 -56 0
-8982 -57 0
-8982 8894 0
-1379 -19 0
-1379 -20 0
-1379 -21 0
7561 -1379 0
-1158 -16 0
-1158 -17 0
-1158 -18 0
7208 -1158 0
-6598 -31 0
-6598 -32 0
-6598 33 0
7500 -6598 0
-1019 -61 0
-1019 62 0
-1019 -63 0
5771 -1019 0
-1457 55 0
-1457 56 0
-1457 -57 0
6627 -1457 0
-5792 -55 0
-5792 -56 0
-5792 -57 0
-5792 5704 0
-595 -43 0
-595 -44 0
-595 45 0
9593 -595 0
-5929 -67 0
-5929 -68 0
-5929 69 0
6237 -5929 0
-8015 -58 0
-8015 -59 0
-8015 -60 0
-8015 7817 0
-7972 58 0
-7972 59 0
-7972 -60 0
-7972 5640 0
-7082 -31 0
-7082 32 0
-7082 -33 0
-7082 5608 0
-8194 -67 0
-8194 -68 0
-8194 -69 0
-8194 8106 0
-6990 -10 0
-6990 11 0
-6990 -12 0
-8051 -28 0
-8051 -29 0
-8051 -30 0
-8051 7853 0
-1064 -64 0
-1064 -65 0
-1064 -66 0
6938 -1064 0
-304 -28 0
-304 -29 0
-304 30 0
9170 -304 0
-1141 -31 0
-1141 32 0
-1141 -33 0
5981 -1141 0
-8942 67 0
-8942 68 0
-8942 -69 0
-8942 7512 0
-721 -25 0
-721 -26 0
-721 -27 0
6529 -721 0
-1452 40 0
-1452 41 0
-1452 -42 0
6622 -1452 0
-9055 10 0
-9055 11 0
-9055 -12 0
-9055 7713 0
-8822 -37 0
-8822 -38 0
-8822 -39 0
-8822 8668 0
-8248 25 0
-8248 26 0
-8248 -27 0
-8248 6092 0
-8732 31 0
-8732 32 0
-8732 -33 0
-8732 7104 0
-2712 -58 0
-2712 -59 0
-2712 -60 0
9752 -2712 0
-1365 43 0
-1365 -44 0
-1365 -45 0
7151 -1365 0
-5759 -22 0
-5759 -23 0
-5759 24 0
8399 -5759 0
-1311 13 0
-1311 -14 0
-1311 -15 0
7031 -1311 0
-5699 -37 0
-5699 -38 0
-5699 39 0
8251 -5699 0
-2436 -22 0
-2436 23 0
-2436 -24 0
8332 -2436 0
-1789 61 0
-1789 -62 0
-1789 -63 0
7949 -1789 0
-6166 52 0
-6166 -53 0
-6166 -54 0
-6166 5572 0
-9235 -22 0
-9235 -23 0
-9235 -24 0
-9235 9147 0
-2114 46 0
-2114 47 0
-2114 -48 0
7702 -2114 0
-2168 -76 0
-2168 -77 0
-2168 -78 0
9010 -2168 0
-8889 37 0
-8889 38 0
-8889 -39 0
-8889 7393 0
-1928 -16 0
-1928 -17 0
-1928 -18 0
8638 -1928 0
-9786 25 0
-9786 -26 0
-9786 -27 0
-9786 9368 0
-2385 -67 0
-2385 -68 0
-2385 -69 0
9271 -2385 0
-9823 70 0
-9823 -71 0
-9823 -72 0
-9823 9427 0
-841 -55 0
-841 -56 0
-841 -57 0
6671 -841 0
-945 -37 0
-945 -38 0
-945 -39 0
6797 -945 0
-1854 58 0
-1854 59 0
-1854 -60 0
7266 -1854 0
-870 76 0
-870 -77 0
-870 -78 0
6392 -870 0
-6327 -7 0
-6327 -8 0
-6327 9 0
9297 -6327 0
-2657 25 0
-2657 -26 0
-2657 -27 0
9389 -2657 0
-919 25 0
-919 -26 0
-919 -27 0
6485 -919 0
-8497 52 0
-8497 -53 0
-8497 -54 0
-8497 7925 0
-2386 -70 0
-2386 -71 0
-2386 -72 0
9272 -2386 0
-7056 -16 0
-7056 17 0
-7056 -18 0
-7056 5560 0
-1229 -31 0
-1229 32 0
-1229 -33 0
6179 -1229 0
-1353 73 0
-1353 -74 0
-1353 -75 0
7095 -1353 0
-783 -13 0
-783 -14 0
-783 15 0
9825 -783 0
-2067 37 0
-2067 38 0
-2067 -39 0
7633 -2067 0
-5473 -22 0
-5473 -23 0
-5473 24 0
8795 -5473 0
-8831 -64 0
-8831 -65 0
-8831 -66 0
-8831 8677 0
-1600 -22 0
-1600 -23 0
-1600 -24 0
8068 -1600 0
-9669 -70 0
-9669 71 0
-9669 -72 0
-9669 8547 0
-2211 73 0
-2211 -74 0
-2211 -75 0
8745 -2211 0
-1409 43 0
-1409 44 0
-1409 -45 0
6579 -1409 0
-9676 -25 0
-9676 26 0
-9676 -27 0
-9676 8576 0
-2050 -52 0
-2050 -53 0
-2050 -54 0
8870 -2050 0
-5708 -64 0
-5708 -65 0
-5708 66 0
8260 -5708 0
-8644 31 0
-8644 32 0
-8644 -33 0
-8644 7236 0
-8355 19 0
-8355 20 0
-8355 -21 0
-8355 6287 0
-8667 31 0
-8667 32 0
-8667 -33 0
-8667 6973 0
-8898 64 0
-8898 65 0
-8898 -66 0
-8898 7402 0
-6070 25 0
-6070 -26 0
-6070 -27 0
-6070 5432 0
-6479 -67 0
-6479 -68 0
-6479 69 0
7205 -6479 0
-8136 25 0
-8136 26 0
-8136 -27 0
-8136 5958 0
-9549 -40 0
-9549 41 0
-9549 -42 0
-9549 8361 0
-7026 -61 0
-7026 62 0
-7026 -63 0
-7026 5508 0
-8104 58 0
-8104 59 0
-8104 -60 0
-8104 5860 0
-764 -22 0
-764 -23 0
-764 24 0
9806 -764 0
-8917 58 0
-8917 59 0
-8917 -60 0
-8917 7465 0
-6862 31 0
-6862 -32 0
-6862 -33 0
-6862 6466 0
-8046 -13 0
-8046 -14 0
-8046 -15 0
-8046 7848 0
-5832 -40 0
-5832 -41 0
-5832 42 0
8472 -5832 0
-9542 -19 0
-9542 20 0
-9542 -21 0
-9542 8354 0
-6013 -55 0
-6013 -56 0
-6013 -57 0
-6013 5859 0
-1855 61 0
-1855 62 0
-1855 -63 0
7267 -1855 0
-6729 -28 0
-6729 -29 0
-6729 30 0
7719 -6729 0
-9158 52 0
-9158 -53 0
-9158 -54 0
-9158 8696 0
-2543 -13 0
-2543 14 0
-2543 -15 0
8549 -2543 0
-7132 -43 0
-7132 44 0
-7132 -45 0
-7132 5658 0
-6738 -55 0
-6738 -56 0
-6738 57 0
7728 -6738 0
-6126 67 0
-6126 -68 0
-6126 -69 0
-6126 5510 0
-2034 70 0
-2034 71 0
-2034 -72 0
7534 -2034 0
-106 -28 0
-106 -29 0
-106 30 0
8928 -106 0
-8813 -10 0
-8813 -11 0
-8813 -12 0
-8813 8659 0
-9184 67 0
-9184 -68 0
-9184 -69 0
-9184 8766 0
-9064 37 0
-9064 38 0
-9064 -39 0
-9064 7722 0
-159 -55 0
-159 -56 0
-159 57 0
8981 -159 0
-9016 22 0
-9016 23 0
-9016 -24 0
-9016 7608 0
-351 -37 0
-351 -38 0
-351 39 0
9217 -351 0
-1205 -25 0
-1205 26 0
-1205 -27 0
6133 -1205 0
-1788 58 0
-1788 -59 0
-1788 -60 0
7948 -1788 0
-5431 -19 0
-5431 -20 0
-5431 21 0
-679 -31 0
-679 -32 0
-679 33 0
9699 -679 0
-8839 -19 0
-8839 -20 0
-8839 -21 0
-8839 8685 0
-7557 -67 0
-7557 -68 0
-7557 -69 0
-7557 7403 0
-408 -76 0
-408 -77 0
-408 -78 0
5820 -408 0
-7879 46 0
-7879 47 0
-7879 -48 0
-7879 6427 0
-7620 55 0
-7620 -56 0
-7620 -57 0
-7620 7004 0
-488 52 0
-488 -53 0
-488 -54 0
5592 -488 0
-632 -22 0
-632 -23 0
-632 24 0
9652 -632 0
-7458 -34 0
-7458 35 0
-7458 -36 0
-7458 6226 0
-9073 64 0
-9073 65 0
-9073 -66 0
-9073 7731 0
-8211 52 0
-8211 53 0
-8211 -54 0
-8211 6825 0
-7774 -58 0
-7774 -59 0
-7774 -60 0
-7774 7620 0
-2678 22 0
-2678 -23 0
-2678 -24 0
9432 -2678 0
-2033 67 0
-2033 68 0
-2033 -69 0
7533 -2033 0
-9547 -34 0
-9547 35 0
-9547 -36 0
-9547 8359 0
-2389 -13 0
-2389 14 0
-2389 -15 0
8263 -2389 0
-8981 -52 0
-8981 -53 0
-8981 -54 0
-8981 8893 0
-6685 -25 0
-6685 -26 0
-6685 27 0
7609 -6685 0
-5715 -22 0
-5715 -23 0
-5715 24 0
8311 -5715 0
-497 -13 0
-497 -14 0
-497 -15 0
6019 -497 0
-7143 -16 0
-7143 -17 0
-7143 -18 0
-7143 6945 0
-195 -31 0
-195 -32 0
-195 33 0
9039 -195 0
-9027 55 0
-9027 56 0
-9027 -57 0
-9027 7619 0
-7710 67 0
-7710 -68 0
-7710 -69 0
-7710 7182 0
-5791 -52 0
-5791 -53 0
-5791 -54 0
-5791 5703 0
-9419 -43 0
-9419 44 0
-9419 -45 0
-9419 8055 0
-2713 -61 0
-2713 -62 0
-2713 -63 0
9753 -2713 0
-9484 -43 0
-9484 44 0
-9484 -45 0
-9484 8230 0
-1689 25 0
-1689 26 0
-1689 -27 0
6903 -1689 0
-7343 -22 0
-7343 23 0
-7343 -24 0
-7343 6045 0
-7010 -13 0
-7010 14 0
-7010 -15 0
-7010 5492 0
-6002 -22 0
-6002 -23 0
-6002 -24 0
-6002 5848 0
-355 -49 0
-355 -50 0
-355 51 0
9221 -355 0
-5913 -19 0
-5913 -20 0
-5913 21 0
6221 -5913 0
-303 -25 0
-303 -26 0
-303 27 0
9169 -303 0
-6176 19 0
-6176 -20 0
-6176 -21 0
-6176 5604 0
-722 -28 0
-722 -29 0
-722 -30 0
6530 -722 0
-6089 13 0
-6089 -14 0
-6089 -15 0
-7464 -52 0
-7464 53 0
-7464 -54 0
-7464 6232 0
-7930 64 0
-7930 65 0
-7930 -66 0
-7930 5576 0
-1018 -58 0
-1018 59 0
-1018 -60 0
5770 -1018 0
-7500 -28 0
-7500 29 0
-7500 -30 0
-7500 6290 0
-339 -67 0
-339 -68 0
-339 69 0
9205 -339 0
-8712 37 0
-8712 38 0
-8712 -39 0
-8712 7062 0
-5508 -58 0
-5508 -59 0
-5508 60 0
7994 -5508 0
-7261 -40 0
-7261 41 0
-7261 -42 0
-7261 5919 0
-7842 61 0
-7842 62 0
-7842 -63 0
-7842 5444 0
-9270 -61 0
-9270 62 0
-9270 -63 0
-9270 8104 0
-9019 31 0
-9019 32 0
-9019 -33 0
-9019 7611 0
-8764 58 0
-8764 59 0
-8764 -60 0
-8764 7136 0
-6457 -70 0
-6457 -71 0
-6457 72 0
9471 -6457 0
-9130 37 0
-9130 -38 0
-9130 -39 0
-9130 8668 0
-7254 -19 0
-7254 20 0
-7254 -21 0
-7254 5912 0
-5883 -64 0
-5883 -65 0
-5883 66 0
8545 -5883 0
-8664 22 0
-8664 23 0
-8664 -24 0
-8664 6970 0
-9099 -10 0
-9099 -11 0
-9099 -12 0
-9099 9011 0
-5856 -43 0
-5856 -44 0
-5856 45 0
6098 -5856 0
-6183 40 0
-6183 -41 0
-6183 -42 0
-6183 5611 0
-8433 58 0
-8433 -59 0
-8433 -60 0
-8433 7817 0
-5983 -34 0
-5983 -35 0
-5983 -36 0
-5983 5829 0
-975 -61 0
-975 62 0
-975 -63 0
5727 -975 0
-7740 -25 0
-7740 -26 0
-7740 -27 0
-7740 7586 0
-5481 -46 0
-5481 -47 0
-5481 48 0
8803 -5481 0
-920 28 0
-920 -29 0
-920 -30 0
6486 -920 0
-539 -73 0
-539 -74 0
-539 75 0
9537 -539 0
-8334 25 0
-8334 26 0
-8334 -27 0
-8334 6266 0
-2658 28 0
-2658 -29 0
-2658 -30 0
9390 -2658 0
-5874 -37 0
-5874 -38 0
-5874 39 0
8536 -5874 0
-1503 -61 0
-1503 -62 0
-1503 -63 0
7795 -1503 0
-7180 -58 0
-7180 -59 0
-7180 -60 0
-7180 6982 0
-8498 55 0
-8498 -56 0
-8498 -57 0
-8498 7926 0
-5985 -40 0
-5985 -41 0
-5985 -42 0
-5985 5831 0
-6181 34 0
-6181 -35 0
-6181 -36 0
-6181 5609 0
-7214 -31 0
-7214 32 0
-7214 -33 0
-7214 5828 0
-9139 64 0
-9139 -65 0
-9139 -66 0
-9139 8677 0
-8489 28 0
-8489 -29 0
-8489 -30 0
-8489 7917 0
-1045 -73 0
-1045 74 0
-1045 -75 0
5797 -1045 0
-154 -40 0
-154 -41 0
-154 42 0
8976 -154 0
-6005 -31 0
-6005 -32 0
-6005 -33 0
-6005 5851 0
-6982 -55 0
-6982 56 0
-6982 -57 0
-6982 5442 0
-7259 -34 0
-7259 35 0
-7259 -36 0
-7259 5917 0
-1070 -16 0
-1070 17 0
-1070 -18 0
5866 -1070 0
-5767 -46 0
-5767 -47 0
-5767 48 0
8407 -5767 0
-482 34 0
-482 -35 0
-482 -36 0
5586 -482 0
-9152 34 0
-9152 -35 0
-9152 -36 0
-9152 8690 0
-9254 -13 0
-9254 14 0
-9254 -15 0
-9254 8088 0
-9243 -46 0
-9243 -47 0
-9243 -48 0
-9243 9155 0
-340 -70 0
-340 -71 0
-340 72 0
9206 -340 0
-8721 64 0
-8721 65 0
-8721 -66 0
-8721 7071 0
-8675 55 0
-8675 56 0
-8675 -57 0
-8675 6981 0
-5978 -19 0
-5978 -20 0
-5978 -21 0
-5978 5824 0
-2497 -73 0
-2497 -74 0
-2497 -75 0
9493 -2497 0
-6020 13 0
-6020 -14 0
-6020 -15 0
-6020 5382 0
-7041 -40 0
-7041 41 0
-7041 -42 0
-7041 5545 0
-2644 52 0
-2644 -53 0
-2644 -54 0
9354 -2644 0
-5380 -73 0
-5380 -74 0
-5380 75 0
8900 -5380 0
-7887 70 0
-7887 71 0
-7887 -72 0
-7887 6435 0
-7759 -13 0
-7759 -14 0
-7759 -15 0
-7759 7605 0
-1191 -49 0
-1191 50 0
-1191 -51 0
6119 -1191 0
-5539 -19 0
-5539 -20 0
-5539 21 0
8047 -5539 0
-1719 -49 0
-1719 -50 0
-1719 -51 0
8209 -1719 0
-6711 -40 0
-6711 -41 0
-6711 42 0
7679 -6711 0
-7146 -25 0
-7146 -26 0
-7146 -27 0
-7146 6948 0
-7480 -37 0
-7480 38 0
-7480 -39 0
-7480 6270 0
-625 -67 0
-625 -68 0
-625 -69 0
6323 -625 0
-9422 -52 0
-9422 53 0
-9422 -54 0
-9422 8058 0
-6346 -64 0
-6346 -65 0
-6346 66 0
9316 -6346 0
-6436 -70 0
-6436 -71 0
-6436 72 0
7140 -6436 0
-9535 -64 0
-9535 65 0
-9535 -66 0
-9535 8325 0
-1801 31 0
-1801 -32 0
-1801 -33 0
8005 -1801 0
-1954 28 0
-1954 29 0
-1954 -30 0
7410 -1954 0
-6704 -19 0
-6704 -20 0
-6704 21 0
7672 -6704 0
-9561 -10 0
-9561 11 0
-9561 -12 0
-9561 8395 0
-2334 -46 0
-2334 47 0
-2334 -48 0
8164 -2334 0
-7034 -19 0
-7034 20 0
-7034 -21 0
-7034 5538 0
-5607 -25 0
-5607 -26 0
-5607 -27 0
-5607 5409 0
-8174 73 0
-8174 74 0
-8174 -75 0
-8174 6018 0
-5901 -52 0
-5901 -53 0
-5901 54 0
8585 -5901 0
-6636 -13 0
-6636 -14 0
-6636 -15 0
-6636 6548 0
-6795 28 0
-6795 -29 0
-6795 -30 0
-6795 6333 0
-6353 -16 0
-6353 -17 0
-6353 18 0
6991 -6353 0
-8042 -70 0
-8042 -71 0
-8042 -72 0
-8042 7844 0
-2261 -25 0
-2261 -26 0
-2261 -27 0
9125 -2261 0
-9526 -37 0
-9526 38 0
-9526 -39 0
-9526 8316 0
-6664 -31 0
-6664 -32 0
-6664 33 0
9766 -6664 0
-1078 -40 0
-1078 41 0
-1078 -42 0
5874 -1078 0
-6937 -58 0
-6937 59 0
-6937 -60 0
-6937 5705 0
-8089 13 0
-8089 14 0
-8089 -15 0
-8089 5845 0
-2243 37 0
-2243 -38 0
-2243 -39 0
8821 -2243 0
-8574 16 0
-8574 -17 0
-8574 -18 0
-8574 8046 0
-6652 -61 0
-6652 -62 0
-6652 -63 0
-6652 6564 0
-1468 22 0
-1468 23 0
-1468 -24 0
6638 -1468 0
-558 -64 0
-558 -65 0
-558 66 0
9556 -558 0
-9155 43 0
-9155 -44 0
-9155 -45 0
-9155 8693 0
-6804 55 0
-6804 -56 0
-6804 -57 0
-6804 6342 0
-8133 16 0
-8133 17 0
-8133 -18 0
-8133 5955 0
-6709 -34 0
-6709 -35 0
-6709 36 0
7677 -6709 0
-2630 76 0
-2630 -77 0
-2630 -78 0
9340 -2630 0
-2428 -64 0
-2428 65 0
-2428 -66 0
8302 -2428 0
-6036 61 0
-6036 -62 0
-6036 -63 0
-6036 5398 0
-9399 -52 0
-9399 53 0
-9399 -54 0
-9399 8035 0
-7489 -64 0
-7489 65 0
-7489 -66 0
-7489 6279 0
-626 -70 0
-626 -71 0
-626 -72 0
6324 -626 0
-6358 -31 0
-6358 -32 0
-6358 33 0
6996 -6358 0
-6495 -52 0
-6495 -53 0
-6495 -54 0
-6495 6341 0
-6514 -40 0
-6514 -41 0
-6514 -42 0
-6514 6360 0
-7039 -34 0
-7039 35 0
-7039 -36 0
-7039 5543 0
-146 -16 0
-146 -17 0
-146 18 0
8968 -146 0
-7792 49 0
-7792 50 0
-7792 -51 0
-7792 6560 0
-7165 -13 0
-7165 -14 0
-7165 -15 0
-7165 6967 0
-1590 58 0
-1590 59 0
-1590 -60 0
6782 -1590 0
-1111 -73 0
-1111 74 0
-1111 -75 0
5907 -1111 0
-1329 67 0
-1329 -68 0
-1329 -69 0
7049 -1329 0
-2367 -13 0
-2367 -14 0
-2367 -15 0
9253 -2367 0
-2590 -22 0
-2590 -23 0
-2590 -24 0
9608 -2590 0
-8286 13 0
-8286 14 0
-8286 -15 0
-8286 6196 0
-7193 -28 0
-7193 -29 0
-7193 -30 0
-7193 6995 0
-2247 49 0
-2247 -50 0
-2247 -51 0
8825 -2247 0
-6118 43 0
-6118 -44 0
-6118 -45 0
-6118 5502 0
-7848 10 0
-7848 11 0
-7848 -12 0
-1156 -76 0
-1156 77 0
-1156 -78 0
5996 -1156 0
-9176 43 0
-9176 -44 0
-9176 -45 0
-9176 8758 0
-9807 22 0
-9807 -23 0
-9807 -24 0
-9807 9411 0
-6565 -61 0
-6565 -62 0
-6565 63 0
7401 -6565 0
-2638 34 0
-2638 -35 0
-2638 -36 0
9348 -2638 0
-2153 -31 0
-2153 -32 0
-2153 -33 0
8995 -2153 0
-7291 -64 0
-7291 65 0
-7291 -66 0
-7291 5971 0
-1525 61 0
-1525 62 0
-1525 -63 0
6717 -1525 0
-1083 -55 0
-1083 56 0
-1083 -57 0
5879 -1083 0
-802 -70 0
-802 -71 0
-802 72 0
9844 -802 0
-9251 -70 0
-9251 -71 0
-9251 -72 0
-9251 9163 0
-231 -73 0
-231 -74 0
-231 75 0
9075 -231 0
-755 -61 0
-755 -62 0
-755 63 0
9797 -755 0
-8331 16 0
-8331 17 0
-8331 -18 0
-8331 6263 0
-6220 13 0
-6220 -14 0
-6220 -15 0
-6220 5648 0
-5775 -70 0
-5775 -71 0
-5775 72 0
8415 -5775 0
-9335 -58 0
-9335 59 0
-9335 -60 0
-9335 7927 0
-801 -67 0
-801 -68 0
-801 69 0
9843 -801 0
-9750 49 0
-9750 -50 0
-9750 -51 0
-9750 9288 0
-1573 73 0
-1573 74 0
-1573 -75 0
6765 -1573 0
-9416 -34 0
-9416 35 0
-9416 -36 0
-9416 8052 0
-7702 43 0
-7702 -44 0
-7702 -45 0
-7702 7174 0
-855 31 0
-855 -32 0
-855 -33 0
6377 -855 0
-7282 -37 0
-7282 38 0
-7282 -39 0
-7282 5962 0
-7737 -16 0
-7737 -17 0
-7737 -18 0
-7737 7583 0
-7646 73 0
-7646 -74 0
-7646 -75 0
-7646 7074 0
-1715 -37 0
-1715 -38 0
-1715 -39 0
8205 -1715 0
-1187 -37 0
-1187 38 0
-1187 -39 0
6115 -1187 0
-8749 13 0
-8749 14 0
-8749 -15 0
-8749 7121 0
-9492 -67 0
-9492 68 0
-9492 -69 0
-9492 8238 0
-6525 -10 0
-6525 -11 0
-6525 12 0
9627 -6525 0
-5493 -13 0
-5493 -14 0
-5493 15 0
7979 -5493 0
-6560 -46 0
-6560 -47 0
-6560 48 0
7396 -6560 0
-1244 -76 0
-1244 77 0
-1244 -78 0
6194 -1244 0
-9653 -22 0
-9653 23 0
-9653 -24 0
-9653 8531 0
-6449 -46 0
-6449 -47 0
-6449 48 0
9463 -6449 0
-1330 70 0
-1330 -71 0
-1330 -72 0
7050 -1330 0
-1678 58 0
-1678 59 0
-1678 -60 0
6892 -1678 0
-5489 -70 0
-5489 -71 0
-5489 72 0
8811 -5489 0
-464 46 0
-464 -47 0
-464 -48 0
5524 -464 0
-8302 61 0
-8302 62 0
-8302 -63 0
-8302 6212 0
-667 -61 0
-667 -62 0
-667 63 0
9687 -667 0
-7461 -43 0
-7461 44 0
-7461 -45 0
-7461 6229 0
-2533 -49 0
-2533 50 0
-2533 -51 0
8517 -2533 0
-5555 -67 0
-5555 -68 0
-5555 69 0
8063 -5555 0
-6543 -64 0
-6543 -65 0
-6543 66 0
9645 -6543 0
-1936 -40 0
-1936 -41 0
-1936 -42 0
8646 -1936 0
-666 -58 0
-666 -59 0
-666 60 0
9686 -666 0
-2561 -67 0
-2561 68 0
-2561 -69 0
8567 -2561 0
-1302 52 0
-1302 -53 0
-1302 -54 0
7022 -1302 0
-368 -22 0
-368 -23 0
-368 24 0
9234 -368 0
-2224 46 0
-2224 -47 0
-2224 -48 0
8780 -2224 0
-1679 61 0
-1679 62 0
-1679 -63 0
6893 -1679 0
-6225 28 0
-6225 -29 0
-6225 -30 0
-6225 5653 0
-433 19 0
-433 -20 0
-433 -21 0
5471 -433 0
-8865 34 0
-8865 35 0
-8865 -36 0
-8865 7369 0
-8186 -43 0
-8186 -44 0
-8186 -45 0
-8186 8098 0
-1985 55 0
-1985 56 0
-1985 -57 0
7441 -1985 0
-516 -70 0
-516 -71 0
-516 -72 0
6038 -516 0
-7564 25 0
-7564 -26 0
-7564 -27 0
-7564 6948 0
-2408 -70 0
-2408 71 0
-2408 -72 0
8282 -2408 0
-5902 -55 0
-5902 -56 0
-5902 57 0
8586 -5902 0
-5893 -28 0
-5893 -29 0
-5893 30 0
8577 -5893 0
-1953 25 0
-1953 26 0
-1953 -27 0
7409 -1953 0
-6322 -61 0
-6322 -62 0
-6322 63 0
9512 -6322 0
-8934 43 0
-8934 44 0
-8934 -45 0
-8934 7504 0
-706 -46 0
-706 -47 0
-706 48 0
9726 -706 0
-1444 16 0
-1444 17 0
-1444 -18 0
6614 -1444 0
-8237 61 0
-8237 62 0
-8237 -63 0
-8237 6081 0
-6136 31 0
-6136 -32 0
-6136 -33 0
-6136 5542 0
-5580 -13 0
-5580 -14 0
-5580 -15 0
-5580 5382 0
-92 -52 0
-92 -53 0
-92 54 0
8914 -92 0
-6690 -40 0
-6690 -41 0
-6690 42 0
7614 -6690 0
-1171 -55 0
-1171 -56 0
-1171 -57 0
7221 -1171 0
-7188 -13 0
-7188 -14 0
-7188 -15 0
-7188 6990 0
-515 -67 0
-515 -68 0
-515 -69 0
6037 -515 0
-1524 58 0
-1524 59 0
-1524 -60 0
6716 -1524 0
-2407 -67 0
-2407 68 0
-2407 -69 0
8281 -2407 0
-8632 -58 0
-8632 -59 0
-8632 -60 0
-8632 8478 0
-393 -31 0
-393 -32 0
-393 -33 0
5805 -393 0
-6803 52 0
-6803 -53 0
-6803 -54 0
-6803 6341 0
-2101 73 0
-2101 74 0
-2101 -75 0
7667 -2101 0
-694 -76 0
-694 -77 0
-694 78 0
9714 -694 0
-5596 -61 0
-5596 -62 0
-5596 -63 0
-5596 5398 0
-1277 -43 0
-1277 -44 0
-1277 -45 0
7349 -1277 0
-8478 55 0
-8478 -56 0
-8478 -57 0
-8478 7862 0
-2262 -28 0
-2262 -29 0
-2262 -30 0
9126 -2262 0
-8867 40 0
-8867 41 0
-8867 -42 0
-8867 7371 0
-6306 -13 0
-6306 -14 0
-6306 15 0
9496 -6306 0
-7911 7 0
-7911 8 0
-7911 -9 0
-7911 5557 0
-2177 37 0
-2177 -38 0
-2177 -39 0
8711 -2177 0
-2472 -64 0
-2472 65 0
-2472 -66 0
8390 -2472 0
-754 -58 0
-754 -59 0
-754 60 0
9796 -754 0
-6496 -55 0
-6496 -56 0
-6496 -57 0
-6496 6342 0
-8860 19 0
-8860 20 0
-8860 -21 0
-8860 7364 0
-9400 -55 0
-9400 56 0
-9400 -57 0
-9400 8036 0
-8660 10 0
-8660 11 0
-8660 -12 0
-8660 6966 0
-2353 -37 0
-2353 38 0
-2353 -39 0
8183 -2353 0
-7273 -10 0
-7273 11 0
-7273 -12 0
-7273 5953 0
-7359 -70 0
-7359 71 0
-7359 -72 0
-7359 6061 0
-1591 61 0
-1591 62 0
-1591 -63 0
6783 -1591 0
-210 -76 0
-210 -77 0
-210 78 0
9054 -210 0
-8232 46 0
-8232 47 0
-8232 -48 0
-8232 6076 0
-6534 -37 0
-6534 -38 0
-6534 39 0
9636 -6534 0
-2015 13 0
-2015 14 0
-2015 -15 0
7515 -2015 0
-9391 -28 0
-9391 29 0
-9391 -30 0
-9391 8027 0
-1834 -64 0
-1834 -65 0
-1834 -66 0
8434 -1834 0
-2562 -70 0
-2562 71 0
-2562 -72 0
8568 -2562 0
-5731 -70 0
-5731 -71 0
-5731 72 0
8327 -5731 0
-6487 -28 0
-6487 -29 0
-6487 -30 0
-6487 6333 0
-5827 -25 0
-5827 -26 0
-5827 27 0
8467 -5827 0
-9304 -25 0
-9304 26 0
-9304 -27 0
-9304 7852 0
-275 -73 0
-275 -74 0
-275 75 0
9119 -275 0
-8516 43 0
-8516 -44 0
-8516 -45 0
-8516 7966 0
-9034 13 0
-9034 14 0
-9034 -15 0
-9034 7670 0
-9570 -37 0
-9570 38 0
-9570 -39 0
-9570 8404 0
-9673 -16 0
-9673 17 0
-9673 -18 0
-9673 8573 0
-1893 43 0
-1893 44 0
-1893 -45 0
7305 -1893 0
-7822 70 0
-7822 71 0
-7822 -72 0
-7822 6370 0
-6957 -49 0
-6957 50 0
-6957 -51 0
-6957 5417 0
-6880 19 0
-6880 -20 0
-6880 -21 0
-6880 6506 0
-2181 49 0
-2181 -50 0
-2181 -51 0
8715 -2181 0
-86 -34 0
-86 -35 0
-86 36 0
8908 -86 0
-2357 -49 0
-2357 50 0
-2357 -51 0
8187 -2357 0
-6887 40 0
-6887 -41 0
-6887 -42 0
-6887 6513 0
-9766 28 0
-9766 -29 0
-9766 -30 0
-9766 9304 0
-6775 -34 0
-6775 -35 0
-6775 -36 0
-6775 6687 0
-8374 -13 0
-8374 -14 0
-8374 -15 0
-8374 8220 0
-5399 -61 0
-5399 -62 0
-5399 63 0
8699 -5399 0
-9694 -13 0
-9694 14 0
-9694 -15 0
-9694 8616 0
-5998 -10 0
-5998 -11 0
-5998 -12 0
-5998 5844 0
-321 -13 0
-321 -14 0
-321 15 0
9187 -321 0
-1296 34 0
-1296 -35 0
-1296 -36 0
7016 -1296 0
-6337 -37 0
-6337 -38 0
-6337 39 0
9307 -6337 0
-6441 -22 0
-6441 -23 0
-6441 24 0
9455 -6441 0
-9661 -46 0
-9661 47 0
-9661 -48 0
-9661 8539 0
-7471 -10 0
-7471 11 0
-7471 -12 0
-7471 6261 0
-9783 16 0
-9783 -17 0
-9783 -18 0
-9783 9365 0
-7981 16 0
-7981 17 0
-7981 -18 0
-7981 5649 0
-9710 -61 0
-9710 62 0
-9710 -63 0
-9710 8632 0
-2529 -37 0
-2529 38 0
-2529 -39 0
8513 -2529 0
-8390 -61 0
-8390 -62 0
-8390 -63 0
-8390 8236 0
-1980 40 0
-1980 41 0
-1980 -42 0
7436 -1980 0
-7957 13 0
-7957 14 0
-7957 -15 0
-7957 5625 0
-6777 -40 0
-6777 -41 0
-6777 -42 0
-6777 6689 0
-6885 34 0
-6885 -35 0
-6885 -36 0
-6885 6511 0
-5689 -7 0
-5689 -8 0
-5689 9 0
8241 -5689 0
-6090 16 0
-6090 -17 0
-6090 -18 0
-6163 43 0
-6163 -44 0
-6163 -45 0
-6163 5569 0
-1166 -40 0
-1166 -41 0
-1166 -42 0
7216 -1166 0
-8879 7 0
-8879 8 0
-8879 -9 0
-8879 7383 0
-6770 -19 0
-6770 -20 0
-6770 -21 0
-6770 6682 0
-5394 -46 0
-5394 -47 0
-5394 48 0
8694 -5394 0
-9579 -64 0
-9579 65 0
-9579 -66 0
-9579 8413 0
-9050 61 0
-9050 62 0
-9050 -63 0
-9050 7686 0
-9517 -10 0
-9517 11 0
-9517 -12 0
-9517 8307 0
-1925 73 0
-1925 74 0
-1925 -75 0
7337 -1925 0
-1731 19 0
-1731 -20 0
-1731 -21 0
7869 -1731 0
-9815 46 0
-9815 -47 0
-9815 -48 0
-9815 9419 0
-9012 10 0
-9012 11 0
-9012 -12 0
-9012 7604 0
-7986 31 0
-7986 32 0
-7986 -33 0
-7986 5654 0
-1941 -55 0
-1941 -56 0
-1941 -57 0
8651 -1941 0
-828 -16 0
-828 -17 0
-828 -18 0
6658 -828 0
-9442 -49 0
-9442 -50 0
-9442 -51 0
-9442 9288 0
-932 64 0
-932 -65 0
-932 -66 0
6498 -932 0
-2198 34 0
-2198 -35 0
-2198 -36 0
8732 -2198 0
-2670 64 0
-2670 -65 0
-2670 -66 0
9402 -2670 0
-6658 -13 0
-6658 -14 0
-6658 15 0
9760 -6658 0
-1340 34 0
-1340 -35 0
-1340 -36 0
7082 -1340 0
-9717 -16 0
-9717 -17 0
-9717 -18 0
-9717 9629 0
-685 -49 0
-685 -50 0
-685 51 0
9705 -685 0
-5672 -25 0
-5672 -26 0
-5672 27 0
9016 -5672 0
-7817 55 0
-7817 56 0
-7817 -57 0
-7817 6365 0
-7062 -34 0
-7062 35 0
-7062 -36 0
-7062 5566 0
-9201 52 0
-9201 -53 0
-9201 -54 0
-9201 8805 0
-6520 -58 0
-6520 -59 0
-6520 -60 0
-6520 6366 0
-5944 -49 0
-5944 -50 0
-5944 51 0
8628 -5944 0
-1312 16 0
-1312 -17 0
-1312 -18 0
7032 -1312 0
-8435 64 0
-8435 -65 0
-8435 -66 0
-8435 7819 0
-8549 10 0
-8549 -11 0
-8549 -12 0
-8549 8021 0
-5823 -13 0
-5823 -14 0
-5823 15 0
8463 -5823 0
-2512 -52 0
-2512 53 0
-2512 -54 0
8496 -2512 0
-201 -49 0
-201 -50 0
-201 51 0
9045 -201 0
-6371 -10 0
-6371 -11 0
-6371 12 0
9363 -6371 0
-9824 73 0
-9824 -74 0
-9824 -75 0
-9824 9428 0
-5881 -58 0
-5881 -59 0
-5881 60 0
8543 -5881 0
-1927 -13 0
-1927 -14 0
-1927 -15 0
8637 -1927 0
-6366 -55 0
-6366 -56 0
-6366 57 0
7004 -6366 0
-734 -64 0
-734 -65 0
-734 -66 0
6542 -734 0
-7629 22 0
-7629 -23 0
-7629 -24 0
-7629 7057 0
-8426 37 0
-8426 -38 0
-8426 -39 0
-8426 7810 0
-7806 22 0
-7806 23 0
-7806 -24 0
-7806 6354 0
-5814 -55 0
-5814 -56 0
-5814 57 0
9158 -5814 0
-5805 -28 0
-5805 -29 0
-5805 30 0
9149 -5805 0
-7728 52 0
-7728 -53 0
-7728 -54 0
-7728 7200 0
-1051 -25 0
-1051 -26 0
-1051 -27 0
6925 -1051 0
-412 22 0
-412 -23 0
-412 -24 0
5450 -412 0
-576 -52 0
-576 -53 0
-576 54 0
9574 -576 0
-2024 40 0
-2024 41 0
-2024 -42 0
7524 -2024 0
-2542 -76 0
-2542 77 0
-2542 -78 0
8526 -2542 0
-9137 58 0
-9137 -59 0
-9137 -60 0
-9137 8675 0
-6026 31 0
-6026 -32 0
-6026 -33 0
-6026 5388 0
-8541 49 0
-8541 -50 0
-8541 -51 0
-8541 7991 0
-6904 -25 0
-6904 -26 0
-6904 -27 0
-6904 6816 0
-6642 -31 0
-6642 -32 0
-6642 -33 0
-6642 6554 0
-8263 10 0
-8263 11 0
-8263 -12 0
-8263 6151 0
-784 -16 0
-784 -17 0
-784 18 0
9826 -784 0
-6833 10 0
-6833 -11 0
-6833 -12 0
-6833 6415 0
-8719 58 0
-8719 59 0
-8719 -60 0
-8719 7069 0
-5401 -67 0
-5401 -68 0
-5401 69 0
8701 -5401 0
-6551 -19 0
-6551 -20 0
-6551 21 0
7387 -6551 0
-9670 -73 0
-9670 74 0
-9670 -75 0
-9670 8548 0
-8876 67 0
-8876 68 0
-8876 -69 0
-8876 7380 0
-335 -55 0
-335 -56 0
-335 57 0
9201 -335 0
-5972 -64 0
-5972 -65 0
-5972 66 0
6302 -5972 0
-2339 -61 0
-2339 62 0
-2339 -63 0
8169 -2339 0
-6674 -61 0
-6674 -62 0
-6674 63 0
9776 -6674 0
-5548 -46 0
-5548 -47 0
-5548 48 0
8056 -5548 0
-7961 25 0
-7961 26 0
-7961 -27 0
-7961 5629 0
-8919 64 0
-8919 65 0
-8919 -66 0
-8919 7467 0
-710 -58 0
-710 -59 0
-710 60 0
9730 -710 0
-6896 67 0
-6896 -68 0
-6896 -69 0
-6896 6522 0
-7722 34 0
-7722 -35 0
-7722 -36 0
-7722 7194 0
-5363 -22 0
-5363 -23 0
-5363 24 0
8883 -5363 0
-2129 25 0
-2129 26 0
-2129 -27 0
7739 -2129 0
-2506 -34 0
-2506 35 0
-2506 -36 0
8490 -2506 0
-330 -40 0
-330 -41 0
-330 42 0
9196 -330 0
-8405 -37 0
-8405 -38 0
-8405 -39 0
-8405 8251 0
-8157 22 0
-8157 23 0
-8157 -24 0
-8157 6001 0
-2228 58 0
-2228 -59 0
-2228 -60 0
8784 -2228 0
-1754 22 0
-1754 -23 0
-1754 -24 0
7892 -1754 0
-2204 52 0
-2204 -53 0
-2204 -54 0
8738 -2204 0
-469 61 0
-469 -62 0
-469 -63 0
5529 -469 0
-6280 -64 0
-6280 -65 0
-6280 -66 0
-6280 6082 0
-5443 -55 0
-5443 -56 0
-5443 57 0
-125 -19 0
-125 -20 0
-125 21 0
8947 -125 0
-662 -46 0
-662 -47 0
-662 48 0
9682 -662 0
-2057 -73 0
-2057 -74 0
-2057 -75 0
8877 -2057 0
-2029 55 0
-2029 56 0
-2029 -57 0
7529 -2029 0
-608 -16 0
-608 -17 0
-608 -18 0
6306 -608 0
-1346 52 0
-1346 -53 0
-1346 -54 0
7088 -1346 0
-6154 16 0
-6154 -17 0
-6154 -18 0
-6154 5560 0
-9003 52 0
-9003 53 0
-9003 -54 0
-9003 7595 0
-164 -70 0
-164 -71 0
-164 72 0
8986 -164 0
-9071 58 0
-9071 59 0
-9071 -60 0
-9071 7729 0
-2190 76 0
-2190 -77 0
-2190 -78 0
8724 -2190 0
-5553 -61 0
-5553 -62 0
-5553 63 0
8061 -5553 0
-875 25 0
-875 -26 0
-875 -27 0
6397 -875 0
-8292 31 0
-8292 32 0
-8292 -33 0
-8292 6202 0
-8801 37 0
-8801 38 0
-8801 -39 0
-8801 7195 0
-681 -37 0
-681 -38 0
-681 39 0
9701 -681 0
-163 -67 0
-163 -68 0
-163 69 0
8985 -163 0
-349 -31 0
-349 -32 0
-349 33 0
9215 -349 0
-7999 -10 0
-7999 -11 0
-7999 -12 0
-7999 7801 0
-8910 37 0
-8910 38 0
-8910 -39 0
-8910 7458 0
-750 -46 0
-750 -47 0
-750 48 0
9792 -750 0
-1971 13 0
-1971 14 0
-1971 -15 0
7427 -1971 0
-7809 31 0
-7809 32 0
-7809 -33 0
-7809 6357 0
-5642 -61 0
-5642 -62 0
-5642 -63 0
-5642 5444 0
-8239 67 0
-8239 68 0
-8239 -69 0
-8239 6083 0
-9502 -28 0
-9502 29 0
-9502 -30 0
-9502 8248 0
-6584 -55 0
-6584 -56 0
-6584 57 0
7464 -6584 0
-6575 -28 0
-6575 -29 0
-6575 30 0
7455 -6575 0
-118 -64 0
-118 -65 0
-118 66 0
8940 -118 0
-197 -37 0
-197 -38 0
-197 39 0
9041 -197 0
-9451 -7 0
-9451 -8 0
-9451 -9 0
-9451 9297 0
-1157 -13 0
-1157 -14 0
-1157 -15 0
7207 -1157 0
-570 -34 0
-570 -35 0
-570 36 0
9568 -570 0
-1520 46 0
-1520 47 0
-1520 -48 0
6712 -1520 0
-2366 -76 0
-2366 77 0
-2366 -78 0
8196 -2366 0
-7068 -52 0
-7068 53 0
-7068 -54 0
-7068 5572 0
-8326 64 0
-8326 65 0
-8326 -66 0
-8326 6236 0
-6786 -67 0
-6786 -68 0
-6786 -69 0
-6786 6698 0
-495 73 0
-495 -74 0
-495 -75 0
5599 -495 0
-1143 -37 0
-1143 38 0
-1143 -39 0
5983 -1143 0
-5438 -40 0
-5438 -41 0
-5438 42 0
-6312 -31 0
-6312 -32 0
-6312 33 0
9502 -6312 0
-6271 -37 0
-6271 -38 0
-6271 -39 0
-6271 6073 0
-6146 61 0
-6146 -62 0
-6146 -63 0
-6146 5552 0
-8017 -64 0
-8017 -65 0
-8017 -66 0
-8017 7819 0
-7637 46 0
-7637 -47 0
-7637 -48 0
-7637 7065 0
-8626 -40 0
-8626 -41 0
-8626 -42 0
-8626 8472 0
-7262 -43 0
-7262 44 0
-7262 -45 0
-7262 5920 0
-8093 25 0
-8093 26 0
-8093 -27 0
-8093 5849 0
-8470 31 0
-8470 -32 0
-8470 -33 0
-8470 7854 0
-1541 43 0
-1541 44 0
-1541 -45 0
6733 -1541 0
-1032 -34 0
-1032 35 0
-1032 -36 0
5784 -1032 0
-9193 28 0
-9193 -29 0
-9193 -30 0
-9193 8797 0
-6458 -73 0
-6458 -74 0
-6458 75 0
9472 -6458 0
-7050 -67 0
-7050 68 0
-7050 -69 0
-7050 5554 0
-8465 16 0
-8465 -17 0
-8465 -18 0
-8465 7849 0
-2621 49 0
-2621 -50 0
-2621 -51 0
9331 -2621 0
-9146 16 0
-9146 -17 0
-9146 -18 0
-9146 8684 0
-6241 -16 0
-6241 -17 0
-6241 -18 0
-6241 6043 0
-526 -34 0
-526 -35 0
-526 36 0
9524 -526 0
-6184 43 0
-6184 -44 0
-6184 -45 0
-6184 5612 0
-9202 55 0
-9202 -56 0
-9202 -57 0
-9202 8806 0
-6720 -67 0
-6720 -68 0
-6720 69 0
7688 -6720 0
-8029 -31 0
-8029 -32 0
-8029 -33 0
-8029 7831 0
-846 -70 0
-846 -71 0
-846 -72 0
6676 -846 0
-8414 -64 0
-8414 -65 0
-8414 -66 0
-8414 8260 0
-8583 43 0
-8583 -44 0
-8583 -45 0
-8583 8055 0
-1586 46 0
-1586 47 0
-1586 -48 0
6778 -1586 0
-5986 -43 0
-5986 -44 0
-5986 -45 0
-5986 5832 0
-8901 10 0
-8901 11 0
-8901 -12 0
-8901 7449 0
-468 58 0
-468 -59 0
-468 -60 0
5528 -468 0
-1052 -28 0
-1052 -29 0
-1052 -30 0
6926 -1052 0
-2229 61 0
-2229 -62 0
-2229 -63 0
8785 -2229 0
-1200 -76 0
-1200 77 0
-1200 -78 0
6128 -1200 0
-1674 46 0
-1674 47 0
-1674 -48 0
6888 -1674 0
-1728 -76 0
-1728 -77 0
-1728 -78 0
8218 -1728 0
-845 -67 0
-845 -68 0
-845 -69 0
6675 -845 0
-243 -43 0
-243 -44 0
-243 45 0
9087 -243 0
-943 -31 0
-943 -32 0
-943 -33 0
6795 -943 0
-7836 43 0
-7836 44 0
-7836 -45 0
-7836 5438 0
-8317 37 0
-8317 38 0
-8317 -39 0
-8317 6227 0
-5813 -52 0
-5813 -53 0
-5813 54 0
9157 -5813 0
-2381 -55 0
-2381 -56 0
-2381 -57 0
9267 -2381 0
-7763 -25 0
-7763 -26 0
-7763 -27 0
-7763 7609 0
-316 -64 0
-316 -65 0
-316 66 0
9182 -316 0
-6696 -58 0
-6696 -59 0
-6696 60 0
7620 -6696 0
-5586 -31 0
-5586 -32 0
-5586 -33 0
-5586 5388 0
-1069 -13 0
-1069 14 0
-1069 -15 0
5865 -1069 0
-6130 13 0
-6130 -14 0
-6130 -15 0
-6130 5536 0
-711 -61 0
-711 -62 0
-711 63 0
9731 -711 0
-6423 -31 0
-6423 -32 0
-6423 33 0
7127 -6423 0
-8829 -58 0
-8829 -59 0
-8829 -60 0
-8829 8675 0
-1123 -43 0
-1123 44 0
-1123 -45 0
5941 -1123 0
-7407 -16 0
-7407 17 0
-7407 -18 0
-7407 6153 0
-5385 -19 0
-5385 -20 0
-5385 21 0
8685 -5385 0
-6567 -67 0
-6567 -68 0
-6567 69 0
7403 -6567 0
-8810 64 0
-8810 65 0
-8810 -66 0
-8810 7204 0
-5862 -61 0
-5862 -62 0
-5862 63 0
6104 -5862 0
-1231 -37 0
-1231 38 0
-1231 -39 0
6181 -1231 0
-8008 -37 0
-8008 -38 0
-8008 -39 0
-8008 7810 0
-5603 -13 0
-5603 -14 0
-5603 -15 0
-5603 5405 0
-2065 31 0
-2065 32 0
-2065 -33 0
7631 -2065 0
-7368 -28 0
-7368 29 0
-7368 -30 0
-7368 6070 0
-2130 28 0
-2130 29 0
-2130 -30 0
7740 -2130 0
-1038 -52 0
-1038 53 0
-1038 -54 0
5790 -1038 0
-9481 -34 0
-9481 35 0
-9481 -36 0
-9481 8227 0
-6380 -37 0
-6380 -38 0
-6380 39 0
9372 -6380 0
-532 -52 0
-532 -53 0
-532 54 0
9530 -532 0
-7452 -16 0
-7452 17 0
-7452 -18 0
-7452 6220 0
-2338 -58 0
-2338 59 0
-2338 -60 0
8168 -2338 0
-1461 67 0
-1461 68 0
-1461 -69 0
6631 -1461 0
-6431 -55 0
-6431 -56 0
-6431 57 0
7135 -6431 0
-5497 -25 0
-5497 -26 0
-5497 27 0
7983 -5497 0
-8558 37 0
-8558 -38 0
-8558 -39 0
-8558 8030 0
-9550 -43 0
-9550 44 0
-9550 -45 0
-9550 8362 0
-8026 -22 0
-8026 -23 0
-8026 -24 0
-8026 7828 0
-8753 25 0
-8753 26 0
-8753 -27 0
-8753 7125 0
-1218 -64 0
-1218 65 0
-1218 -66 0
6146 -1218 0
-6851 64 0
-6851 -65 0
-6851 -66 0
-6851 6433 0
-1702 64 0
-1702 65 0
-1702 -66 0
6916 -1702 0
-9004 55 0
-9004 56 0
-9004 -57 0
-9004 7596 0
-8281 64 0
-8281 65 0
-8281 -66 0
-8281 6169 0
-1235 -49 0
-1235 50 0
-1235 -51 0
6185 -1235 0
-8995 28 0
-8995 29 0
-8995 -30 0
-8995 7587 0
-6085 1 0
-6085 -2 0
-6085 -3 0
-7994 55 0
-7994 56 0
-7994 -57 0
-7994 5662 0
-2544 -16 0
-2544 17 0
-2544 -18 0
8550 -2544 0
-2376 -40 0
-2376 -41 0
-2376 -42 0
9262 -2376 0
-5371 -46 0
-5371 -47 0
-5371 48 0
8891 -5371 0
-6420 -22 0
-6420 -23 0
-6420 24 0
7124 -6420 0
-8272 37 0
-8272 38 0
-8272 -39 0
-8272 6160 0
-1147 -49 0
-1147 50 0
-1147 -51 0
5987 -1147 0
-7169 -25 0
-7169 -26 0
-7169 -27 0
-7169 6971 0
-6842 37 0
-6842 -38 0
-6842 -39 0
-6842 6424 0
-9476 -19 0
-9476 20 0
-9476 -21 0
-9476 8222 0
-8037 -55 0
-8037 -56 0
-8037 -57 0
-8037 7839 0
-2256 76 0
-2256 -77 0
-2256 -78 0
8834 -2256 0
-6104 58 0
-6104 -59 0
-6104 -60 0
-9040 31 0
-9040 32 0
-9040 -33 0
-9040 7676 0
-6825 49 0
-6825 -50 0
-6825 -51 0
-6825 6363 0
-876 28 0
-876 -29 0
-876 -30 0
6398 -876 0
-5963 -37 0
-5963 -38 0
-5963 39 0
6293 -5963 0
-8417 10 0
-8417 -11 0
-8417 -12 0
-8417 7801 0
-6290 -25 0
-6290 -26 0
-6290 -27 0
-6290 6092 0
-6099 43 0
-6099 -44 0
-6099 -45 0
-498 -16 0
-498 -17 0
-498 -18 0
6020 -498 0
-8223 19 0
-8223 20 0
-8223 -21 0
-8223 6067 0
-2390 -16 0
-2390 17 0
-2390 -18 0
8264 -2390 0
-7138 -61 0
-7138 62 0
-7138 -63 0
-7138 5664 0
-8165 46 0
-8165 47 0
-8165 -48 0
-8165 6009 0
-9115 -58 0
-9115 -59 0
-9115 -60 0
-9115 9027 0
-9700 -31 0
-9700 32 0
-9700 -33 0
-9700 8622 0
-2617 37 0
-2617 -38 0
-2617 -39 0
9327 -2617 0
-6389 -64 0
-6389 -65 0
-6389 66 0
9381 -6389 0
-9483 -40 0
-9483 41 0
-9483 -42 0
-9483 8229 0
-8380 -31 0
-8380 -32 0
-8380 -33 0
-8380 8226 0
-6583 -52 0
-6583 -53 0
-6583 54 0
7463 -6583 0
-1462 70 0
-1462 71 0
-1462 -72 0
6632 -1462 0
-8567 64 0
-8567 -65 0
-8567 -66 0
-8567 8039 0
-9044 43 0
-9044 44 0
-9044 -45 0
-9044 7680 0
-1044 -70 0
-1044 71 0
-1044 -72 0
5796 -1044 0
-5710 -70 0
-5710 -71 0
-5710 72 0
8262 -5710 0
-7611 28 0
-7611 -29 0
-7611 -30 0
-7611 6995 0
-9692 -73 0
-9692 74 0
-9692 -75 0
-9692 8592 0
-8900 70 0
-8900 71 0
-8900 -72 0
-8900 7404 0
-6497 -58 0
-6497 -59 0
-6497 -60 0
-6497 6343 0
-6863 34 0
-6863 -35 0
-6863 -36 0
-6863 6467 0
-8506 13 0
-8506 -14 0
-8506 -15 0
-8506 7956 0
-9401 -58 0
-9401 59 0
-9401 -60 0
-9401 8037 0
-538 -70 0
-538 -71 0
-538 72 0
9536 -538 0
-2046 -40 0
-2046 -41 0
-2046 -42 0
8866 -2046 0
-255 -13 0
-255 -14 0
-255 15 0
9099 -255 0
-834 -34 0
-834 -35 0
-834 -36 0
6664 -834 0
-5920 -40 0
-5920 -41 0
-5920 42 0
6228 -5920 0
-9704 -43 0
-9704 44 0
-9704 -45 0
-9704 8626 0
-8585 49 0
-8585 -50 0
-8585 -51 0
-8585 8057 0
-807 -19 0
-807 -20 0
-807 21 0
9849 -807 0
-8645 34 0
-8645 35 0
-8645 -36 0
-8645 7237 0
-6919 -70 0
-6919 -71 0
-6919 -72 0
-6919 6831 0
-8384 -43 0
-8384 -44 0
-8384 -45 0
-8384 8230 0
-341 -73 0
-341 -74 0
-341 75 0
9207 -341 0
-6243 -22 0
-6243 -23 0
-6243 -24 0
-6243 6045 0
-392 -28 0
-392 -29 0
-392 -30 0
5804 -392 0
-7770 -46 0
-7770 -47 0
-7770 -48 0
-7770 7616 0
-9310 -43 0
-9310 44 0
-9310 -45 0
-9310 7858 0
-6935 -52 0
-6935 53 0
-6935 -54 0
-6935 5703 0
-8105 61 0
-8105 62 0
-8105 -63 0
-8105 5861 0
-2263 -31 0
-2263 -32 0
-2263 -33 0
9127 -2263 0
-8782 49 0
-8782 50 0
-8782 -51 0
-8782 7176 0
-9360 -67 0
-9360 68 0
-9360 -69 0
-9360 7974 0
-5903 -58 0
-5903 -59 0
-5903 60 0
8587 -5903 0
-7801 7 0
-7801 8 0
-7801 -9 0
-7801 6349 0
-9802 73 0
-9802 -74 0
-9802 -75 0
-9802 9384 0
-6858 19 0
-6858 -20 0
-6858 -21 0
-6858 6462 0
-6393 -10 0
-6393 -11 0
-6393 12 0
9407 -6393 0
-1871 43 0
-1871 44 0
-1871 -45 0
7283 -1871 0
-9546 -31 0
-9546 32 0
-9546 -33 0
-9546 8358 0
-1825 -37 0
-1825 -38 0
-1825 -39 0
8425 -1825 0
-1290 16 0
-1290 -17 0
-1290 -18 0
7010 -1290 0
-9636 -34 0
-9636 35 0
-9636 -36 0
-9636 8470 0
-2362 -64 0
-2362 65 0
-2362 -66 0
8192 -2362 0
-1799 25 0
-1799 -26 0
-1799 -27 0
8003 -1799 0
-9727 -46 0
-9727 -47 0
-9727 -48 0
-9727 9639 0
-122 -76 0
-122 -77 0
-122 78 0
8944 -122 0
-9459 -31 0
-9459 -32 0
-9459 -33 0
-9459 9305 0
-8647 40 0
-8647 41 0
-8647 -42 0
-8647 7239 0
-287 -43 0
-287 -44 0
-287 -45 0
5677 -287 0
-5687 -70 0
-5687 -71 0
-5687 72 0
9031 -5687 0
-8522 61 0
-8522 -62 0
-8522 -63 0
-8522 7972 0
-5954 -10 0
-5954 -11 0
-5954 12 0
6284 -5954 0
-1043 -67 0
-1043 68 0
-1043 -69 0
5795 -1043 0
-8640 19 0
-8640 20 0
-8640 -21 0
-8640 7232 0
-2186 64 0
-2186 -65 0
-2186 -66 0
8720 -2186 0
-2463 -37 0
-2463 38 0
-2463 -39 0
8381 -2463 0
-1905 13 0
-1905 14 0
-1905 -15 0
7317 -1905 0
-1436 58 0
-1436 59 0
-1436 -60 0
6606 -1436 0
-8100 46 0
-8100 47 0
-8100 -48 0
-8100 5856 0
-7409 -22 0
-7409 23 0
-7409 -24 0
-7409 6155 0
-7775 -61 0
-7775 -62 0
-7775 -63 0
-7775 7621 0
-6865 40 0
-6865 -41 0
-6865 -42 0
-6865 6469 0
-80 -16 0
-80 -17 0
-80 18 0
8902 -80 0
-537 -67 0
-537 -68 0
-537 69 0
9535 -537 0
-1456 52 0
-1456 53 0
-1456 -54 0
6626 -1456 0
-5825 -19 0
-5825 -20 0
-5825 21 0
8465 -5825 0
-1829 -49 0
-1829 -50 0
-1829 -51 0
8429 -1829 0
-9642 -52 0
-9642 53 0
-9642 -54 0
-9642 8476 0
-7932 70 0
-7932 71 0
-7932 -72 0
-7932 5578 0
-6973 -28 0
-6973 29 0
-6973 -30 0
-6973 5433 0
-5982 -31 0
-5982 -32 0
-5982 -33 0
-5982 5828 0
-7217 -40 0
-7217 41 0
-7217 -42 0
-7217 5831 0
-2003 43 0
-2003 44 0
-2003 -45 0
7481 -2003 0
-9843 64 0
-9843 -65 0
-9843 -66 0
-9843 9469 0
-772 -46 0
-772 -47 0
-772 48 0
9814 -772 0
-7176 -46 0
-7176 -47 0
-7176 -48 0
-7176 6978 0
-936 76 0
-936 -77 0
-936 -78 0
6502 -936 0
-8362 40 0
-8362 41 0
-8362 -42 0
-8362 6294 0
-7210 -19 0
-7210 20 0
-7210 -21 0
-7210 5824 0
-2674 76 0
-2674 -77 0
-2674 -78 0
9406 -2674 0
-2467 -49 0
-2467 50 0
-2467 -51 0
8385 -2467 0
-9090 49 0
-9090 50 0
-9090 -51 0
-9090 7770 0
-9467 -55 0
-9467 -56 0
-9467 -57 0
-9467 9313 0
-8176 -13 0
-8176 -14 0
-8176 -15 0
-8176 8088 0
-8765 61 0
-8765 62 0
-8765 -63 0
-8765 7137 0
-853 25 0
-853 -26 0
-853 -27 0
6375 -853 0
-7295 -10 0
-7295 11 0
-7295 -12 0
-7295 5997 0
-5590 -43 0
-5590 -44 0
-5590 -45 0
-5590 5392 0
-5509 -61 0
-5509 -62 0
-5509 63 0
7995 -5509 0
-6262 -10 0
-6262 -11 0
-6262 -12 0
-6262 6064 0
-8924 13 0
-8924 14 0
-8924 -15 0
-8924 7494 0
-9333 -52 0
-9333 53 0
-9333 -54 0
-9333 7925 0
-840 -52 0
-840 -53 0
-840 -54 0
6670 -840 0
-6549 -13 0
-6549 -14 0
-6549 15 0
7385 -6549 0
-8192 -61 0
-8192 -62 0
-8192 -63 0
-8192 8104 0
-1657 61 0
-1657 62 0
-1657 -63 0
6871 -1657 0
-6823 43 0
-6823 -44 0
-6823 -45 0
-6823 6361 0
-5621 -67 0
-5621 -68 0
-5621 -69 0
-5621 5423 0
-7258 -31 0
-7258 32 0
-7258 -33 0
-7258 5916 0
-640 -46 0
-640 -47 0
-640 48 0
9660 -640 0
-2081 13 0
-2081 14 0
-2081 -15 0
7647 -2081 0
-8940 61 0
-8940 62 0
-8940 -63 0
-8940 7510 0
-6316 -43 0
-6316 -44 0
-6316 45 0
9506 -6316 0
-2151 -25 0
-2151 -26 0
-2151 -27 0
8993 -2151 0
-6626 -49 0
-6626 -50 0
-6626 51 0
7550 -6626 0
-8685 16 0
-8685 17 0
-8685 -18 0
-8685 6991 0
-2686 46 0
-2686 -47 0
-2686 -48 0
9440 -2686 0
-1450 34 0
-1450 35 0
-1450 -36 0
6620 -1450 0
-991 -43 0
-991 44 0
-991 -45 0
5743 -991 0
-6180 31 0
-6180 -32 0
-6180 -33 0
-6180 5608 0
-7215 -34 0
-7215 35 0
-7215 -36 0
-7215 5829 0
-2035 73 0
-2035 74 0
-2035 -75 0
7535 -2035 0
-7181 -61 0
-7181 -62 0
-7181 -63 0
-7181 6983 0
-8690 31 0
-8690 32 0
-8690 -33 0
-8690 6996 0
-8308 10 0
-8308 11 0
-8308 -12 0
-8308 6218 0
-8846 -40 0
-8846 -41 0
-8846 -42 0
-8846 8692 0
-738 -76 0
-738 -77 0
-738 -78 0
6546 -738 0
-1261 -61 0
-1261 62 0
-1261 -63 0
6255 -1261 0
-9834 37 0
-9834 -38 0
-9834 -39 0
-9834 9460 0
-2538 -64 0
-2538 65 0
-2538 -66 0
8522 -2538 0
-8760 46 0
-8760 47 0
-8760 -48 0
-8760 7132 0
-9456 -22 0
-9456 -23 0
-9456 -24 0
-9456 9302 0
-5504 -46 0
-5504 -47 0
-5504 48 0
7990 -5504 0
-2051 -55 0
-2051 -56 0
-2051 -57 0
8871 -2051 0
-1706 76 0
-1706 77 0
-1706 -78 0
6920 -1706 0
-9719 -22 0
-9719 -23 0
-9719 -24 0
-9719 9631 0
-2387 -73 0
-2387 -74 0
-2387 -75 0
9273 -2387 0
-9212 19 0
-9212 -20 0
-9212 -21 0
-9212 8838 0
-6594 -19 0
-6594 -20 0
-6594 21 0
7496 -6594 0
-7304 -37 0
-7304 38 0
-7304 -39 0
-7304 6006 0
-9166 13 0
-9166 -14 0
-9166 -15 0
-9166 8748 0
-8296 43 0
-8296 44 0
-8296 -45 0
-8296 6206 0
-6108 13 0
-6108 -14 0
-6108 -15 0
-6108 5492 0
-1091 -13 0
-1091 14 0
-1091 -15 0
5887 -1091 0
-1260 -58 0
-1260 59 0
-1260 -60 0
6254 -1260 0
-6601 -40 0
-6601 -41 0
-6601 42 0
7503 -6601 0
-6936 -55 0
-6936 56 0
-6936 -57 0
-6936 5704 0
-2444 -46 0
-2444 47 0
-2444 -48 0
8340 -2444 0
-7417 -46 0
-7417 47 0
-7417 -48 0
-7417 6163 0
-211 -13 0
-211 -14 0
-211 15 0
9055 -211 0
-2106 22 0
-2106 23 0
-2106 -24 0
7694 -2106 0
-1656 58 0
-1656 59 0
-1656 -60 0
6870 -1656 0
-8396 -10 0
-8396 -11 0
-8396 -12 0
-8396 8242 0
-7708 61 0
-7708 -62 0
-7708 -63 0
-7708 7180 0
-2210 70 0
-2210 -71 0
-2210 -72 0
8744 -2210 0
-1352 70 0
-1352 -71 0
-1352 -72 0
7094 -1352 0
-6805 58 0
-6805 -59 0
-6805 -60 0
-6805 6343 0
-1222 -76 0
-1222 77 0
-1222 -78 0
6150 -1222 0
-6927 -28 0
-6927 29 0
-6927 -30 0
-6927 5695 0
-6968 -13 0
-6968 14 0
-6968 -15 0
-6968 5428 0
-391 -25 0
-391 -26 0
-391 -27 0
5803 -391 0
-9219 40 0
-9219 -41 0
-9219 -42 0
-9219 8845 0
-158 -52 0
-158 -53 0
-158 54 0
8980 -158 0
-8350 73 0
-8350 74 0
-8350 -75 0
-8350 6282 0
-8539 43 0
-8539 -44 0
-8539 -45 0
-8539 7989 0
-7692 13 0
-7692 -14 0
-7692 -15 0
-7692 7164 0
-2632 16 0
-2632 -17 0
-2632 -18 0
9342 -2632 0
-7756 -73 0
-7756 -74 0
-7756 -75 0
-7756 7602 0
-2209 67 0
-2209 -68 0
-2209 -69 0
8743 -2209 0
-9217 34 0
-9217 -35 0
-9217 -36 0
-9217 8843 0
-1955 31 0
-1955 32 0
-1955 -33 0
7411 -1955 0
-1800 28 0
-1800 -29 0
-1800 -30 0
8004 -1800 0
-489 55 0
-489 -56 0
-489 -57 0
5593 -489 0
-7028 -67 0
-7028 68 0
-7028 -69 0
-7028 5510 0
-6599 -34 0
-6599 -35 0
-6599 36 0
7501 -6599 0
-9825 10 0
-9825 -11 0
-9825 -12 0
-9825 9451 0
-2419 -37 0
-2419 38 0
-2419 -39 0
8293 -2419 0
-8221 13 0
-8221 14 0
-8221 -15 0
-8221 6065 0
-7627 16 0
-7627 -17 0
-7627 -18 0
-7627 7055 0
-1351 67 0
-1351 -68 0
-1351 -69 0
7093 -1351 0
-5561 -16 0
-5561 -17 0
-5561 18 0
5649 -5561 0
-1553 13 0
-1553 14 0
-1553 -15 0
6745 -1553 0
-8792 10 0
-8792 11 0
-8792 -12 0
-8792 7186 0
-2252 64 0
-2252 -65 0
-2252 -66 0
8830 -2252 0
-549 -37 0
-549 -38 0
-549 39 0
9547 -549 0
-5566 -31 0
-5566 -32 0
-5566 33 0
5654 -5566 0
-6124 61 0
-6124 -62 0
-6124 -63 0
-6124 5508 0
-1608 -46 0
-1608 -47 0
-1608 -48 0
8076 -1608 0
-6050 34 0
-6050 -35 0
-6050 -36 0
-6050 5412 0
-9182 61 0
-9182 -62 0
-9182 -63 0
-9182 8764 0
-7313 -64 0
-7313 65 0
-7313 -66 0
-7313 6015 0
-6251 -46 0
-6251 -47 0
-6251 -48 0
-6251 6053 0
-5841 -67 0
-5841 -68 0
-5841 69 0
8481 -5841 0
-6411 -64 0
-6411 -65 0
-6411 66 0
9425 -6411 0
-6030 43 0
-6030 -44 0
-6030 -45 0
-6030 5392 0
-5361 -16 0
-5361 -17 0
-5361 18 0
8881 -5361 0
-5746 -49 0
-5746 -50 0
-5746 51 0
8364 -5746 0
-8021 -7 0
-8021 -8 0
-8021 -9 0
-8021 7823 0
-2477 -13 0
-2477 -14 0
-2477 -15 0
9473 -2477 0
-2423 -49 0
-2423 50 0
-2423 -51 0
8297 -2423 0
-1437 61 0
-1437 62 0
-1437 -63 0
6607 -1437 0
-152 -34 0
-152 -35 0
-152 36 0
8974 -152 0
-169 -19 0
-169 -20 0
-169 -21 0
5361 -169 0
-854 28 0
-854 -29 0
-854 -30 0
6376 -854 0
-6470 -40 0
-6470 -41 0
-6470 42 0
7196 -6470 0
-7606 13 0
-7606 -14 0
-7606 -15 0
-7606 6990 0
-6056 52 0
-6056 -53 0
-6056 -54 0
-6056 5418 0
-7973 61 0
-7973 62 0
-7973 -63 0
-7973 5641 0
-7083 -34 0
-7083 35 0
-7083 -36 0
-7083 5609 0
-9334 -55 0
-9334 56 0
-9334 -57 0
-9334 7926 0
-553 -49 0
-553 -50 0
-553 51 0
9551 -553 0
-2518 -70 0
-2518 71 0
-2518 -72 0
8502 -2518 0
-9325 -28 0
-9325 29 0
-9325 -30 0
-9325 7917 0
-6646 -43 0
-6646 -44 0
-6646 -45 0
-6646 6558 0
-484 40 0
-484 -41 0
-484 -42 0
5588 -484 0
-8733 34 0
-8733 35 0
-8733 -36 0
-8733 7105 0
-581 -67 0
-581 -68 0
-581 69 0
9579 -581 0
-8155 16 0
-8155 17 0
-8155 -18 0
-8155 5999 0
-8735 40 0
-8735 41 0
-8735 -42 0
-8735 7107 0
-5383 -13 0
-5383 -14 0
-5383 15 0
8683 -5383 0
-8060 -55 0
-8060 -56 0
-8060 -57 0
-8060 7862 0
-6415 -7 0
-6415 -8 0
-6415 9 0
7119 -6415 0
-2152 -28 0
-2152 -29 0
-2152 -30 0
8994 -2152 0
-5605 -19 0
-5605 -20 0
-5605 -21 0
-5605 5407 0
-2281 -19 0
-2281 20 0
-2281 -21 0
8111 -2281 0
-582 -70 0
-582 -71 0
-582 72 0
9580 -582 0
-2517 -67 0
-2517 68 0
-2517 -69 0
8501 -2517 0
-7387 -16 0
-7387 17 0
-7387 -18 0
-7387 6089 0
-5526 -49 0
-5526 -50 0
-5526 51 0
8848 -5526 0
-9272 -67 0
-9272 68 0
-9272 -69 0
-9272 8106 0
-7085 -40 0
-7085 41 0
-7085 -42 0
-7085 5611 0
-1196 -64 0
-1196 65 0
-1196 -66 0
6124 -1196 0
-6946 -16 0
-6946 17 0
-6946 -18 0
-6946 5406 0
-1724 -64 0
-1724 -65 0
-1724 -66 0
8214 -1724 0
-7392 -31 0
-7392 32 0
-7392 -33 0
-7392 6094 0
-5541 -25 0
-5541 -26 0
-5541 27 0
8049 -5541 0
-8152 73 0
-8152 74 0
-8152 -75 0
-8152 5974 0
-7968 46 0
-7968 47 0
-7968 -48 0
-7968 5636 0
-7078 -19 0
-7078 20 0
-7078 -21 0
-7078 5604 0
-6402 -37 0
-6402 -38 0
-6402 39 0
9416 -6402 0
-7548 -40 0
-7548 -41 0
-7548 -42 0
-7548 7394 0
-320 -76 0
-320 -77 0
-320 78 0
9186 -320 0
-2312 -46 0
-2312 47 0
-2312 -48 0
8142 -2312 0
-8728 19 0
-8728 20 0
-8728 -21 0
-8728 7100 0
-2567 -19 0
-2567 20 0
-2567 -21 0
8595 -2567 0
-6723 -10 0
-6723 -11 0
-6723 12 0
7713 -6723 0
-220 -40 0
-220 -41 0
-220 42 0
9064 -220 0
-6007 -37 0
-6007 -38 0
-6007 -39 0
-6007 5853 0
-7017 -34 0
-7017 35 0
-7017 -36 0
-7017 5499 0
-6328 -10 0
-6328 -11 0
-6328 12 0
9298 -6328 0
-2396 -34 0
-2396 35 0
-2396 -36 0
8270 -2396 0
-6610 -67 0
-6610 -68 0
-6610 69 0
7512 -6610 0
-8828 -55 0
-8828 -56 0
-8828 -57 0
-8828 8674 0
-504 -34 0
-504 -35 0
-504 -36 0
6026 -504 0
-9540 -13 0
-9540 14 0
-9540 -15 0
-9540 8352 0
-8717 52 0
-8717 53 0
-8717 -54 0
-8717 7067 0
-8225 25 0
-8225 26 0
-8225 -27 0
-8225 6069 0
-8819 -28 0
-8819 -29 0
-8819 -30 0
-8819 8665 0
-9228 67 0
-9228 -68 0
-9228 -69 0
-9228 8854 0
-2064 28 0
-2064 29 0
-2064 -30 0
7630 -2064 0
-5834 -46 0
-5834 -47 0
-5834 48 0
8474 -5834 0
-1490 -22 0
-1490 -23 0
-1490 -24 0
7782 -1490 0
-9135 52 0
-9135 -53 0
-9135 -54 0
-9135 8673 0
-1053 -31 0
-1053 -32 0
-1053 -33 0
6927 -1053 0
-8530 16 0
-8530 -17 0
-8530 -18 0
-8530 7980 0
-8143 46 0
-8143 47 0
-8143 -48 0
-8143 5965 0
-7167 -19 0
-7167 -20 0
-7167 -21 0
-7167 6969 0
-1100 -40 0
-1100 41 0
-1100 -42 0
5896 -1100 0
-1152 -64 0
-1152 65 0
-1152 -66 0
5992 -1152 0
-942 -28 0
-942 -29 0
-942 -30 0
6794 -942 0
-1240 -64 0
-1240 65 0
-1240 -66 0
6190 -1240 0
-5879 -52 0
-5879 -53 0
-5879 54 0
8541 -5879 0
-9021 37 0
-9021 38 0
-9021 -39 0
-9021 7613 0
-7012 -19 0
-7012 20 0
-7012 -21 0
-7012 5494 0
-2316 -58 0
-2316 59 0
-2316 -60 0
8146 -2316 0
-6296 -43 0
-6296 -44 0
-6296 -45 0
-6296 6098 0
-5839 -61 0
-5839 -62 0
-5839 63 0
8479 -5839 0
-8512 31 0
-8512 -32 0
-8512 -33 0
-8512 7962 0
-2491 -55 0
-2491 -56 0
-2491 -57 0
9487 -2491 0
-7596 52 0
-7596 -53 0
-7596 -54 0
-7596 6980 0
-1697 49 0
-1697 50 0
-1697 -51 0
6911 -1697 0
-2550 -34 0
-2550 35 0
-2550 -36 0
8556 -2550 0
-9203 58 0
-9203 -59 0
-9203 -60 0
-9203 8807 0
-7161 -70 0
-7161 -71 0
-7161 -72 0
-7161 6963 0
-9378 -52 0
-9378 53 0
-9378 -54 0
-9378 7992 0
-8751 19 0
-8751 20 0
-8751 -21 0
-8751 7123 0
-962 -22 0
-962 23 0
-962 -24 0
5714 -962 0
-5495 -19 0
-5495 -20 0
-5495 21 0
7981 -5495 0
-307 -37 0
-307 -38 0
-307 39 0
9173 -307 0
-1213 -49 0
-1213 50 0
-1213 -51 0
6141 -1213 0
-1562 40 0
-1562 41 0
-1562 -42 0
6754 -1562 0
-7872 25 0
-7872 26 0
-7872 -27 0
-7872 6420 0
-7236 -28 0
-7236 29 0
-7236 -30 0
-7236 5850 0
-7019 -40 0
-7019 41 0
-7019 -42 0
-7019 5501 0
-6082 61 0
-6082 -62 0
-6082 -63 0
-6082 5444 0
-7975 67 0
-7975 68 0
-7975 -69 0
-7975 5643 0
-9556 -61 0
-9556 62 0
-9556 -63 0
-9556 8368 0
-5926 -58 0
-5926 -59 0
-5926 60 0
6234 -5926 0
-7747 -46 0
-7747 -47 0
-7747 -48 0
-7747 7593 0
-9105 -28 0
-9105 -29 0
-9105 -30 0
-9105 9017 0
-5474 -25 0
-5474 -26 0
-5474 27 0
8796 -5474 0
-645 -61 0
-645 -62 0
-645 63 0
9665 -645 0
-5795 -64 0
-5795 -65 0
-5795 -66 0
-5795 5707 0
-9261 -34 0
-9261 35 0
-9261 -36 0
-9261 8095 0
-5387 -25 0
-5387 -26 0
-5387 27 0
8687 -5387 0
-8985 -64 0
-8985 -65 0
-8985 -66 0
-8985 8897 0
-7590 34 0
-7590 -35 0
-7590 -36 0
-7590 6974 0
-2691 61 0
-2691 -62 0
-2691 -63 0
9445 -2691 0
-6955 -43 0
-6955 44 0
-6955 -45 0
-6955 5415 0
-1308 70 0
-1308 -71 0
-1308 -72 0
7028 -1308 0
-7252 -13 0
-7252 14 0
-7252 -15 0
-7252 5910 0
-9675 -22 0
-9675 23 0
-9675 -24 0
-9675 8575 0
-1567 55 0
-1567 56 0
-1567 -57 0
6759 -1567 0
-1652 46 0
-1652 47 0
-1652 -48 0
6866 -1652 0
-475 13 0
-475 -14 0
-475 -15 0
5579 -475 0
-2448 -58 0
-2448 59 0
-2448 -60 0
8344 -2448 0
-1693 37 0
-1693 38 0
-1693 -39 0
6907 -1693 0
-9114 -55 0
-9114 -56 0
-9114 -57 0
-9114 9026 0
-6439 -16 0
-6439 -17 0
-6439 18 0
9453 -6439 0
-1256 -46 0
-1256 47 0
-1256 -48 0
6250 -1256 0
-5537 -13 0
-5537 -14 0
-5537 15 0
8045 -5537 0
-2700 -22 0
-2700 -23 0
-2700 -24 0
9740 -2700 0
-7761 -19 0
-7761 -20 0
-7761 -21 0
-7761 7607 0
-8698 55 0
-8698 56 0
-8698 -57 0
-8698 7004 0
-5992 -61 0
-5992 -62 0
-5992 -63 0
-5992 5838 0
-347 -25 0
-347 -26 0
-347 27 0
9213 -347 0
-2402 -52 0
-2402 53 0
-2402 -54 0
8276 -2402 0
-1209 -37 0
-1209 38 0
-1209 -39 0
6137 -1209 0
-311 -49 0
-311 -50 0
-311 51 0
9177 -311 0
-510 -52 0
-510 -53 0
-510 -54 0
6032 -510 0
-8215 64 0
-8215 65 0
-8215 -66 0
-8215 6829 0
-877 31 0
-877 -32 0
-877 -33 0
6399 -877 0
-8852 -58 0
-8852 -59 0
-8852 -60 0
-8852 8698 0
-2486 -40 0
-2486 -41 0
-2486 -42 0
9482 -2486 0
-98 -70 0
-98 -71 0
-98 72 0
8920 -98 0
-9372 -34 0
-9372 35 0
-9372 -36 0
-9372 7986 0
-6260 -73 0
-6260 -74 0
-6260 -75 0
-6260 6062 0
-9069 52 0
-9069 53 0
-9069 -54 0
-9069 7727 0
-6174 13 0
-6174 -14 0
-6174 -15 0
-6174 5602 0
-1026 -16 0
-1026 17 0
-1026 -18 0
5778 -1026 0
-9256 -19 0
-9256 20 0
-9256 -21 0
-9256 8090 0
-8446 28 0
-8446 -29 0
-8446 -30 0
-8446 7830 0
-2626 64 0
-2626 -65 0
-2626 -66 0
9336 -2626 0
-6165 49 0
-6165 -50 0
-6165 -51 0
-6165 5571 0
-9236 -25 0
-9236 -26 0
-9236 -27 0
-9236 9148 0
-2432 -76 0
-2432 77 0
-2432 -78 0
8306 -2432 0
-9005 58 0
-9005 59 0
-9005 -60 0
-9005 7597 0
-5406 -13 0
-5406 -14 0
-5406 15 0
7848 -5406 0
-5976 -13 0
-5976 -14 0
-5976 -15 0
-5976 5822 0
-777 -61 0
-777 -62 0
-777 63 0
9819 -777 0
-5760 -25 0
-5760 -26 0
-5760 27 0
8400 -5760 0
-1612 -58 0
-1612 -59 0
-1612 -60 0
8080 -1612 0
-97 -67 0
-97 -68 0
-97 69 0
8919 -97 0
-6190 61 0
-6190 -62 0
-6190 -63 0
-6190 5618 0
-8669 37 0
-8669 38 0
-8669 -39 0
-8669 6975 0
-520 -16 0
-520 -17 0
-520 18 0
9518 -520 0
-1105 -55 0
-1105 56 0
-1105 -57 0
5901 -1105 0
-8206 37 0
-8206 38 0
-8206 -39 0
-8206 6820 0
-9785 22 0
-9785 -23 0
-9785 -24 0
-9785 9367 0
-7830 25 0
-7830 26 0
-7830 -27 0
-7830 5432 0
-8930 31 0
-8930 32 0
-8930 -33 0
-8930 7500 0
-7426 -73 0
-7426 74 0
-7426 -75 0
-7426 6172 0
-8976 -37 0
-8976 -38 0
-8976 -39 0
-8976 8888 0
-8091 19 0
-8091 20 0
-8091 -21 0
-8091 5847 0
-225 -55 0
-225 -56 0
-225 57 0
9069 -225 0
-6140 43 0
-6140 -44 0
-6140 -45 0
-6140 5546 0
-2131 31 0
-2131 32 0
-2131 -33 0
7741 -2131 0
-5786 -37 0
-5786 -38 0
-5786 -39 0
-5786 5698 0
-8744 67 0
-8744 68 0
-8744 -69 0
-8744 7116 0
-7094 -67 0
-7094 68 0
-7094 -69 0
-7094 5620 0
-8182 -31 0
-8182 -32 0
-8182 -33 0
-8182 8094 0
-9618 -49 0
-9618 50 0
-9618 -51 0
-9618 8452 0
-9263 -40 0
-9263 41 0
-9263 -42 0
-9263 8097 0
-562 -76 0
-562 -77 0
-562 78 0
9560 -562 0
-1307 67 0
-1307 -68 0
-1307 -69 0
7027 -1307 0
-1089 -73 0
-1089 74 0
-1089 -75 0
5885 -1089 0
-1842 22 0
-1842 23 0
-1842 -24 0
7254 -1842 0
-2556 -52 0
-2556 53 0
-2556 -54 0
8562 -2556 0
-8341 46 0
-8341 47 0
-8341 -48 0
-8341 6273 0
-8368 58 0
-8368 59 0
-8368 -60 0
-8368 6300 0
-8483 10 0
-8483 -11 0
-8483 -12 0
-8483 7911 0
-7268 -61 0
-7268 62 0
-7268 -63 0
-7268 5926 0
-113 -49 0
-113 -50 0
-113 51 0
8935 -113 0
-2063 25 0
-2063 26 0
-2063 -27 0
7629 -2063 0
-7927 55 0
-7927 56 0
-7927 -57 0
-7927 5573 0
-8718 55 0
-8718 56 0
-8718 -57 0
-8718 7068 0
-5716 -25 0
-5716 -26 0
-5716 27 0
8312 -5716 0
-564 -16 0
-564 -17 0
-564 18 0
9562 -564 0
-8709 28 0
-8709 29 0
-8709 -30 0
-8709 7059 0
-8827 -52 0
-8827 -53 0
-8827 -54 0
-8827 8673 0
-2095 55 0
-2095 56 0
-2095 -57 0
7661 -2095 0
-9349 -34 0
-9349 35 0
-9349 -36 0
-9349 7963 0
-5619 -61 0
-5619 -62 0
-5619 -63 0
-5619 5421 0
-7344 -25 0
-7344 26 0
-7344 -27 0
-7344 6046 0
-7698 31 0
-7698 -32 0
-7698 -33 0
-7698 7170 0
-776 -58 0
-776 -59 0
-776 60 0
9818 -776 0
-1613 -61 0
-1613 -62 0
-1613 -63 0
8081 -1613 0
-5574 -55 0
-5574 -56 0
-5574 57 0
5662 -5574 0
-5815 -58 0
-5815 -59 0
-5815 60 0
9159 -5815 0
-9472 -70 0
-9472 -71 0
-9472 -72 0
-9472 9318 0
-941 -25 0
-941 -26 0
-941 -27 0
6793 -941 0
-796 -52 0
-796 -53 0
-796 54 0
9838 -796 0
-9127 28 0
-9127 -29 0
-9127 -30 0
-9127 8665 0
-7183 -67 0
-7183 -68 0
-7183 -69 0
-7183 6985 0
-8501 64 0
-8501 -65 0
-8501 -66 0
-8501 7929 0
-264 -40 0
-264 -41 0
-264 42 0
9108 -264 0
-9136 55 0
-9136 -56 0
-9136 -57 0
-9136 8674 0
-2037 -13 0
-2037 -14 0
-2037 -15 0
8857 -2037 0
-2661 37 0
-2661 -38 0
-2661 -39 0
9393 -2661 0
-923 37 0
-923 -38 0
-923 -39 0
6489 -923 0
-6091 19 0
-6091 -20 0
-6091 -21 0
-9157 49 0
-9157 -50 0
-9157 -51 0
-9157 8695 0
-6114 31 0
-6114 -32 0
-6114 -33 0
-6114 5498 0
-8967 -10 0
-8967 -11 0
-8967 -12 0
-8967 8879 0
-1629 43 0
-1629 44 0
-1629 -45 0
6843 -1629 0
-9172 31 0
-9172 -32 0
-9172 -33 0
-9172 8754 0
-5871 -28 0
-5871 -29 0
-5871 30 0
8533 -5871 0
-5777 -10 0
-5777 -11 0
-5777 -12 0
-5777 5689 0
-5880 -55 0
-5880 -56 0
-5880 57 0
8542 -5880 0
-7916 22 0
-7916 23 0
-7916 -24 0
-7916 5562 0
-614 -34 0
-614 -35 0
-614 -36 0
6312 -614 0
-6874 67 0
-6874 -68 0
-6874 -69 0
-6874 6478 0
-903 43 0
-903 -44 0
-903 -45 0
6447 -903 0
-8492 37 0
-8492 -38 0
-8492 -39 0
-8492 7920 0
-7579 70 0
-7579 -71 0
-7579 -72 0
-7579 6963 0
-9344 -19 0
-9344 20 0
-9344 -21 0
-9344 7958 0
-5614 -46 0
-5614 -47 0
-5614 -48 0
-5614 5416 0
-1914 40 0
-1914 41 0
-1914 -42 0
7326 -1914 0
-1387 -43 0
-1387 -44 0
-1387 -45 0
7569 -1387 0
-2690 58 0
-2690 -59 0
-2690 -60 0
9444 -2690 0
-8767 67 0
-8767 68 0
-8767 -69 0
-8767 7139 0
-587 -19 0
-587 -20 0
-587 21 0
9585 -587 0
-1324 52 0
-1324 -53 0
-1324 -54 0
7044 -1324 0
-644 -58 0
-644 -59 0
-644 60 0
9664 -644 0
-5411 -28 0
-5411 -29 0
-5411 30 0
7853 -5411 0
-9351 -40 0
-9351 41 0
-9351 -42 0
-9351 7965 0
-1177 -73 0
-1177 -74 0
-1177 -75 0
7227 -1177 0
-5511 -67 0
-5511 -68 0
-5511 69 0
7997 -5511 0
-725 -37 0
-725 -38 0
-725 -39 0
6533 -725 0
-8678 64 0
-8678 65 0
-8678 -66 0
-8678 6984 0
-8656 67 0
-8656 68 0
-8656 -69 0
-8656 7248 0
-8887 31 0
-8887 32 0
-8887 -33 0
-8887 7391 0
-2500 -16 0
-2500 17 0
-2500 -18 0
8484 -2500 0
-2449 -61 0
-2449 62 0
-2449 -63 0
8345 -2449 0
-1776 22 0
-1776 -23 0
-1776 -24 0
7936 -1776 0
-1991 73 0
-1991 74 0
-1991 -75 0
7447 -1991 0
-5697 -31 0
-5697 -32 0
-5697 33 0
8249 -5697 0
-8135 22 0
-8135 23 0
-8135 -24 0
-8135 5957 0
-7959 19 0
-7959 20 0
-7959 -21 0
-7959 5627 0
-8197 10 0
-8197 11 0
-8197 -12 0
-8197 6811 0
-8895 55 0
-8895 56 0
-8895 -57 0
-8895 7399 0
-2650 70 0
-2650 -71 0
-2650 -72 0
9360 -2650 0
-6585 -58 0
-6585 -59 0
-6585 60 0
7465 -6585 0
-1357 19 0
-1357 -20 0
-1357 -21 0
7143 -1357 0
-5705 -55 0
-5705 -56 0
-5705 57 0
8257 -5705 0
-9113 -52 0
-9113 -53 0
-9113 -54 0
-9113 9025 0
-8052 -31 0
-8052 -32 0
-8052 -33 0
-8052 7854 0
-6553 -25 0
-6553 -26 0
-6553 27 0
7389 -6553 0
-790 -34 0
-790 -35 0
-790 36 0
9832 -790 0
-9793 46 0
-9793 -47 0
-9793 -48 0
-9793 9375 0
-6668 -43 0
-6668 -44 0
-6668 45 0
9770 -6668 0
-9736 -73 0
-9736 -74 0
-9736 -75 0
-9736 9648 0
-2317 -61 0
-2317 62 0
-2317 -63 0
8147 -2317 0
-7777 -67 0
-7777 -68 0
-7777 -69 0
-7777 7623 0
-6016 -64 0
-6016 -65 0
-6016 -66 0
-6016 5862 0
-7400 -55 0
-7400 56 0
-7400 -57 0
-7400 6102 0
-1947 -73 0
-1947 -74 0
-1947 -75 0
8657 -1947 0
-6732 -37 0
-6732 -38 0
-6732 39 0
7722 -6732 0
-9070 55 0
-9070 56 0
-9070 -57 0
-9070 7728 0
-8333 22 0
-8333 23 0
-8333 -24 0
-8333 6265 0
-6814 16 0
-6814 -17 0
-6814 -18 0
-6814 6352 0
-1006 -22 0
-1006 23 0
-1006 -24 0
5758 -1006 0
-7554 -58 0
-7554 -59 0
-7554 -60 0
-7554 7400 0
-729 -49 0
-729 -50 0
-729 -51 0
6537 -729 0
-9061 28 0
-9061 29 0
-9061 -30 0
-9061 7719 0
-7862 52 0
-7862 53 0
-7862 -54 0
-8047 -16 0
-8047 -17 0
-8047 -18 0
-8047 7849 0
-7226 -67 0
-7226 68 0
-7226 -69 0
-7226 5840 0
-1919 55 0
-1919 56 0
-1919 -57 0
7331 -1919 0
-9805 16 0
-9805 -17 0
-9805 -18 0
-9805 9409 0
-348 -28 0
-348 -29 0
-348 30 0
9214 -348 0
-9683 -46 0
-9683 47 0
-9683 -48 0
-9683 8583 0
-206 -64 0
-206 -65 0
-206 66 0
9050 -206 0
-109 -37 0
-109 -38 0
-109 39 0
8931 -109 0
-1318 34 0
-1318 -35 0
-1318 -36 0
7038 -1318 0
-1432 46 0
-1432 47 0
-1432 -48 0
6602 -1432 0
-6741 -64 0
-6741 -65 0
-6741 66 0
7731 -6741 0
-1838 -76 0
-1838 -77 0
-1838 -78 0
8438 -1838 0
-7739 -22 0
-7739 -23 0
-7739 -24 0
-7739 7585 0
-269 -55 0
-269 -56 0
-269 57 0
9113 -269 0
-8884 22 0
-8884 23 0
-8884 -24 0
-8884 7388 0
-5694 -22 0
-5694 -23 0
-5694 24 0
8246 -5694 0
-7463 -49 0
-7463 50 0
-7463 -51 0
-7463 6231 0
-9030 64 0
-9030 65 0
-9030 -66 0
-9030 7622 0
-8107 67 0
-8107 68 0
-8107 -69 0
-8107 5863 0
-690 -64 0
-690 -65 0
-690 66 0
9710 -690 0
-7104 -28 0
-7104 29 0
-7104 -30 0
-7104 5630 0
-2649 67 0
-2649 -68 0
-2649 -69 0
9359 -2649 0
-8260 61 0
-8260 62 0
-8260 -63 0
-8260 6104 0
-1401 19 0
-1401 20 0
-1401 -21 0
6571 -1401 0
-2192 16 0
-2192 -17 0
-2192 -18 0
8726 -2192 0
-2476 -76 0
-2476 77 0
-2476 -78 0
8394 -2476 0
-9651 -16 0
-9651 17 0
-9651 -18 0
-9651 8529 0
-1334 16 0
-1334 -17 0
-1334 -18 0
7076 -1334 0
-620 -52 0
-620 -53 0
-620 -54 0
6318 -620 0
-7919 31 0
-7919 32 0
-7919 -33 0
-7919 5565 0
-6476 -58 0
-6476 -59 0
-6476 60 0
7202 -6476 0
-5429 -13 0
-5429 -14 0
-5429 15 0
-927 49 0
-927 -50 0
-927 -51 0
6493 -927 0
-2665 49 0
-2665 -50 0
-2665 -51 0
9397 -2665 0
-2090 40 0
-2090 41 0
-2090 -42 0
7656 -2090 0
-2164 -64 0
-2164 -65 0
-2164 -66 0
9006 -2164 0
-441 43 0
-441 -44 0
-441 -45 0
5479 -441 0
-6692 -46 0
-6692 -47 0
-6692 48 0
7616 -6692 0
-9575 -52 0
-9575 53 0
-9575 -54 0
-9575 8409 0
-5582 -19 0
-5582 -20 0
-5582 -21 0
-5582 5384 0
-6409 -58 0
-6409 -59 0
-6409 60 0
9423 -6409 0
-2022 34 0
-2022 35 0
-2022 -36 0
7522 -2022 0
-7571 46 0
-7571 -47 0
-7571 -48 0
-7571 6955 0
-7528 -49 0
-7528 -50 0
-7528 -51 0
-7528 7374 0
-7218 -43 0
-7218 44 0
-7218 -45 0
-7218 5832 0
-1961 49 0
-1961 50 0
-1961 -51 0
7417 -1961 0
-6226 31 0
-6226 -32 0
-6226 -33 0
-6226 5654 0
-5887 -10 0
-5887 -11 0
-5887 12 0
8571 -5887 0
-1068 -76 0
-1068 -77 0
-1068 -78 0
6942 -1068 0
-1184 -28 0
-1184 29 0
-1184 -30 0
6112 -1184 0
-6313 -34 0
-6313 -35 0
-6313 36 0
9503 -6313 0
-1712 -28 0
-1712 -29 0
-1712 -30 0
8202 -1712 0
-6221 16 0
-6221 -17 0
-6221 -18 0
-6221 5649 0
-1463 73 0
-1463 74 0
-1463 -75 0
6633 -1463 0
-2525 -25 0
-2525 26 0
-2525 -27 0
8509 -2525 0
-2513 -55 0
-2513 56 0
-2513 -57 0
8497 -2513 0
-8416 -70 0
-8416 -71 0
-8416 -72 0
-8416 8262 0
-5589 -40 0
-5589 -41 0
-5589 -42 0
-5589 5391 0
-6676 -67 0
-6676 -68 0
-6676 69 0
9778 -6676 0
-8874 61 0
-8874 62 0
-8874 -63 0
-8874 7378 0
-1269 -19 0
-1269 -20 0
-1269 -21 0
7341 -1269 0
-7279 -28 0
-7279 29 0
-7279 -30 0
-7279 5959 0
-6697 -61 0
-6697 -62 0
-6697 63 0
7621 -6697 0
-2200 40 0
-2200 -41 0
-2200 -42 0
8734 -2200 0
-8230 40 0
-8230 41 0
-8230 -42 0
-8230 6074 0
-5587 -34 0
-5587 -35 0
-5587 -36 0
-5587 5389 0
-1342 40 0
-1342 -41 0
-1342 -42 0
7084 -1342 0
-6481 -10 0
-6481 -11 0
-6481 -12 0
-6481 6327 0
-8858 13 0
-8858 14 0
-8858 -15 0
-8858 7362 0
-577 -55 0
-577 -56 0
-577 57 0
9575 -577 0
-9385 -10 0
-9385 11 0
-9385 -12 0
-9385 8021 0
-7288 -55 0
-7288 56 0
-7288 -57 0
-7288 5968 0
-2082 16 0
-2082 17 0
-2082 -18 0
7648 -2082 0
-6315 -40 0
-6315 -41 0
-6315 42 0
9505 -6315 0
-6335 -31 0
-6335 -32 0
-6335 33 0
9305 -6335 0
-1480 58 0
-1480 59 0
-1480 -60 0
6650 -1480 0
-7341 -16 0
-7341 17 0
-7341 -18 0
-7341 6043 0
-866 64 0
-866 -65 0
-866 -66 0
6388 -866 0
-6308 -19 0
-6308 -20 0
-6308 21 0
9498 -6308 0
-8812 70 0
-8812 71 0
-8812 -72 0
-8812 7206 0
-9421 -49 0
-9421 50 0
-9421 -51 0
-9421 8057 0
-5713 -16 0
-5713 -17 0
-5713 18 0
8309 -5713 0
-7145 -22 0
-7145 -23 0
-7145 -24 0
-7145 6947 0
-334 -52 0
-334 -53 0
-334 54 0
9200 -334 0
-9654 -25 0
-9654 26 0
-9654 -27 0
-9654 8532 0
-1812 64 0
-1812 -65 0
-1812 -66 0
8016 -1812 0
-1885 19 0
-1885 20 0
-1885 -21 0
7297 -1885 0
-9691 -70 0
-9691 71 0
-9691 -72 0
-9691 8591 0
-9043 40 0
-9043 41 0
-9043 -42 0
-9043 7679 0
-2349 -25 0
-2349 26 0
-2349 -27 0
8179 -2349 0
-7486 -55 0
-7486 56 0
-7486 -57 0
-7486 6276 0
-8376 -19 0
-8376 -20 0
-8376 -21 0
-8376 8222 0
-7477 -28 0
-7477 29 0
-7477 -30 0
-7477 6267 0
-9630 -16 0
-9630 17 0
-9630 -18 0
-9630 8464 0
-8078 49 0
-8078 50 0
-8078 -51 0
-8078 6692 0
-256 -16 0
-256 -17 0
-256 18 0
9100 -256 0
-6343 -55 0
-6343 -56 0
-6343 57 0
9313 -6343 0
-9696 -19 0
-9696 20 0
-9696 -21 0
-9696 8618 0
-9480 -31 0
-9480 32 0
-9480 -33 0
-9480 8226 0
-8383 -40 0
-8383 -41 0
-8383 -42 0
-8383 8229 0
-6807 64 0
-6807 -65 0
-6807 -66 0
-6807 6345 0
-6878 13 0
-6878 -14 0
-6878 -15 0
-6878 6504 0
-6920 -73 0
-6920 -74 0
-6920 -75 0
-6920 6832 0
-2205 55 0
-2205 -56 0
-2205 -57 0
8739 -2205 0
-2240 28 0
-2240 -29 0
-2240 -30 0
8818 -2240 0
-2602 -58 0
-2602 -59 0
-2602 -60 0
9620 -2602 0
-9703 -40 0
-9703 41 0
-9703 -42 0
-9703 8625 0
-572 -40 0
-572 -41 0
-572 42 0
9570 -572 0
-2173 25 0
-2173 -26 0
-2173 -27 0
8707 -2173 0
-2028 52 0
-2028 53 0
-2028 -54 0
7528 -2028 0
-1347 55 0
-1347 -56 0
-1347 -57 0
7089 -1347 0
-892 76 0
-892 -77 0
-892 -78 0
6414 -892 0
-6784 -61 0
-6784 -62 0
-6784 -63 0
-6784 6696 0
-9036 19 0
-9036 20 0
-9036 -21 0
-9036 7672 0
-6461 -13 0
-6461 -14 0
-6461 15 0
7187 -6461 0
-493 67 0
-493 -68 0
-493 -69 0
5597 -493 0
-1578 22 0
-1578 23 0
-1578 -24 0
6770 -1578 0
-8619 -19 0
-8619 -20 0
-8619 -21 0
-8619 8465 0
-6332 -22 0
-6332 -23 0
-6332 24 0
9302 -6332 0
-9801 70 0
-9801 -71 0
-9801 -72 0
-9801 9383 0
-9523 -28 0
-9523 29 0
-9523 -30 0
-9523 8313 0
-381 -61 0
-381 -62 0
-381 63 0
9247 -381 0
-6798 37 0
-6798 -38 0
-6798 -39 0
-6798 6336 0
-1666 22 0
-1666 23 0
-1666 -24 0
6880 -1666 0
-9808 25 0
-9808 -26 0
-9808 -27 0
-9808 9412 0
-2417 -31 0
-2417 32 0
-2417 -33 0
8291 -2417 0
-6894 61 0
-6894 -62 0
-6894 -63 0
-6894 6520 0
-8648 43 0
-8648 44 0
-8648 -45 0
-8648 7240 0
-2508 -40 0
-2508 41 0
-2508 -42 0
8492 -2508 0
-8381 -34 0
-8381 -35 0
-8381 -36 0
-8381 8227 0
-5392 -40 0
-5392 -41 0
-5392 42 0
8692 -5392 0
-494 70 0
-494 -71 0
-494 -72 0
5598 -494 0
-6768 -13 0
-6768 -14 0
-6768 -15 0
-6768 6680 0
-9701 -34 0
-9701 35 0
-9701 -36 0
-9701 8623 0
-9532 -55 0
-9532 56 0
-9532 -57 0
-9532 8322 0
-1957 37 0
-1957 38 0
-1957 -39 0
7413 -1957 0
-6352 -13 0
-6352 -14 0
-6352 15 0
6990 -6352 0
-1289 13 0
-1289 -14 0
-1289 -15 0
7009 -1289 0
-328 -34 0
-328 -35 0
-328 36 0
9194 -328 0
-2146 76 0
-2146 77 0
-2146 -78 0
7756 -2146 0
-5688 -73 0
-5688 -74 0
-5688 75 0
9032 -5688 0
-7311 -58 0
-7311 59 0
-7311 -60 0
-7311 6013 0
-847 -73 0
-847 -74 0
-847 -75 0
6677 -847 0
-9316 -61 0
-9316 62 0
-9316 -63 0
-9316 7864 0
-79 -13 0
-79 -14 0
-79 15 0
8901 -79 0
-6866 43 0
-6866 -44 0
-6866 -45 0
-6866 6470 0
-7985 28 0
-7985 29 0
-7985 -30 0
-7985 5653 0
-9041 34 0
-9041 35 0
-9041 -36 0
-9041 7677 0
-7539 -13 0
-7539 -14 0
-7539 -15 0
-7539 7385 0
-1739 43 0
-1739 -44 0
-1739 -45 0
7877 -1739 0
-6539 -52 0
-6539 -53 0
-6539 54 0
9641 -6539 0
-1906 16 0
-1906 17 0
-1906 -18 0
7318 -1906 0
-547 -31 0
-547 -32 0
-547 33 0
9545 -547 0
-7869 16 0
-7869 17 0
-7869 -18 0
-7869 6417 0
-9567 -28 0
-9567 29 0
-9567 -30 0
-9567 8401 0
-7032 -13 0
-7032 14 0
-7032 -15 0
-7032 5536 0
-6029 40 0
-6029 -41 0
-6029 -42 0
-6029 5391 0
-6521 -61 0
-6521 -62 0
-6521 -63 0
-6521 6367 0
-6638 -19 0
-6638 -20 0
-6638 -21 0
-6638 6550 0
-9841 58 0
-9841 -59 0
-9841 -60 0
-9841 9467 0
-6702 -13 0
-6702 -14 0
-6702 15 0
7670 -6702 0
-2055 -67 0
-2055 -68 0
-2055 -69 0
8875 -2055 0
-2478 -16 0
-2478 -17 0
-2478 -18 0
9474 -2478 0
-9375 -43 0
-9375 44 0
-9375 -45 0
-9375 7989 0
-5690 -10 0
-5690 -11 0
-5690 12 0
8242 -5690 0
-8880 10 0
-8880 11 0
-8880 -12 0
-8880 7384 0
-9576 -55 0
-9576 56 0
-9576 -57 0
-9576 8410 0
-6952 -34 0
-6952 35 0
-6952 -36 0
-6952 5412 0
-1762 46 0
-1762 -47 0
-1762 -48 0
7900 -1762 0
-7593 43 0
-7593 -44 0
-7593 -45 0
-7593 6977 0
-7153 -46 0
-7153 -47 0
-7153 -48 0
-7153 6955 0
-380 -58 0
-380 -59 0
-380 60 0
9246 -380 0
-654 -22 0
-654 -23 0
-654 24 0
9674 -654 0
-9011 7 0
-9011 8 0
-9011 -9 0
-9011 7603 0
-6022 19 0
-6022 -20 0
-6022 -21 0
-6022 5384 0
-5911 -13 0
-5911 -14 0
-5911 15 0
6219 -5911 0
-6645 -40 0
-6645 -41 0
-6645 -42 0
-6645 6557 0
-1711 -25 0
-1711 -26 0
-1711 -27 0
8201 -1711 0
-2526 -28 0
-2526 29 0
-2526 -30 0
8510 -2526 0
-1183 -25 0
-1183 26 0
-1183 -27 0
6111 -1183 0
-2603 -61 0
-2603 -62 0
-2603 -63 0
9621 -2603 0
-6516 -46 0
-6516 -47 0
-6516 -48 0
-6516 6362 0
-7563 22 0
-7563 -23 0
-7563 -24 0
-7563 6947 0
-6148 67 0
-6148 -68 0
-6148 -69 0
-6148 5554 0
-6643 -34 0
-6643 -35 0
-6643 -36 0
-6643 6555 0
-7287 -52 0
-7287 53 0
-7287 -54 0
-7287 5967 0
-8736 43 0
-8736 44 0
-8736 -45 0
-8736 7108 0
-7086 -43 0
-7086 44 0
-7086 -45 0
-7086 5612 0
-2380 -52 0
-2380 -53 0
-2380 -54 0
9266 -2380 0
-7980 13 0
-7980 14 0
-7980 -15 0
-7980 5648 0
-1034 -40 0
-1034 41 0
-1034 -42 0
5786 -1034 0
-742 -22 0
-742 -23 0
-742 24 0
9784 -742 0
-8151 70 0
-8151 71 0
-8151 -72 0
-8151 5973 0
-7048 -61 0
-7048 62 0
-7048 -63 0
-7048 5552 0
-2269 -49 0
-2269 -50 0
-2269 -51 0
9133 -2269 0
-165 -73 0
-165 -74 0
-165 75 0
8987 -165 0
-6789 10 0
-6789 -11 0
-6789 -12 0
-6789 6327 0
-6357 -28 0
-6357 -29 0
-6357 30 0
6995 -6357 0
-6027 34 0
-6027 -35 0
-6027 -36 0
-6027 5389 0
-5997 -7 0
-5997 -8 0
-5997 -9 0
-5997 5843 0
-528 -40 0
-528 -41 0
-528 42 0
9526 -528 0
-1512 22 0
-1512 23 0
-1512 -24 0
6704 -1512 0
-2056 -70 0
-2056 -71 0
-2056 -72 0
8876 -2056 0
-6718 -61 0
-6718 -62 0
-6718 63 0
7686 -6718 0
-5974 -70 0
-5974 -71 0
-5974 72 0
6304 -5974 0
-9596 -49 0
-9596 -50 0
-9596 -51 0
-9596 9508 0
-1039 -55 0
-1039 56 0
-1039 -57 0
5791 -1039 0
-1481 61 0
-1481 62 0
-1481 -63 0
6651 -1481 0
-1092 -16 0
-1092 17 0
-1092 -18 0
5888 -1092 0
-533 -55 0
-533 -56 0
-533 57 0
9531 -533 0
-7194 -31 0
-7194 -32 0
-7194 -33 0
-7194 6996 0
-8295 40 0
-8295 41 0
-8295 -42 0
-8295 6205 0
-9403 -64 0
-9403 65 0
-9403 -66 0
-9403 8039 0
-7912 10 0
-7912 11 0
-7912 -12 0
-7912 5558 0
-2350 -28 0
-2350 29 0
-2350 -30 0
8180 -2350 0
-7485 -52 0
-7485 53 0
-7485 -54 0
-7485 6275 0
-6499 -64 0
-6499 -65 0
-6499 -66 0
-6499 6345 0
-7004 -52 0
-7004 53 0
-7004 -54 0
-7189 -16 0
-7189 -17 0
-7189 -18 0
-7189 6991 0
-212 -16 0
-212 -17 0
-212 18 0
9056 -212 0
-8288 19 0
-8288 20 0
-8288 -21 0
-8288 6198 0
-2174 28 0
-2174 -29 0
-2174 -30 0
8708 -2174 0
-8659 7 0
-8659 8 0
-8659 -9 0
-8659 6965 0
-6282 -70 0
-6282 -71 0
-6282 -72 0
-6282 6084 0
-2265 -37 0
-2265 -38 0
-2265 -39 0
9129 -2265 0
-6602 -43 0
-6602 -44 0
-6602 45 0
7504 -6602 0
-5430 -16 0
-5430 -17 0
-5430 18 0
-9220 43 0
-9220 -44 0
-9220 -45 0
-9220 8846 0
-8349 70 0
-8349 71 0
-8349 -72 0
-8349 6281 0
-8353 13 0
-8353 14 0
-8353 -15 0
-8353 6285 0
-6044 16 0
-6044 -17 0
-6044 -18 0
-6044 5406 0
-9233 -16 0
-9233 -17 0
-9233 -18 0
-9233 9145 0
-2239 25 0
-2239 -26 0
-2239 -27 0
8817 -2239 0
-5896 -37 0
-5896 -38 0
-5896 39 0
8580 -5896 0
-8635 -67 0
-8635 -68 0
-8635 -69 0
-8635 8481 0
-5757 -16 0
-5757 -17 0
-5757 18 0
8397 -5757 0
-7755 -70 0
-7755 -71 0
-7755 -72 0
-7755 7601 0
-9531 -52 0
-9531 53 0
-9531 -54 0
-9531 8321 0
-2631 13 0
-2631 -14 0
-2631 -15 0
9341 -2631 0
-6442 -25 0
-6442 -26 0
-6442 27 0
9456 -6442 0
-5905 -64 0
-5905 -65 0
-5905 66 0
8589 -5905 0
-1554 16 0
-1554 17 0
-1554 -18 0
6746 -1554 0
-420 46 0
-420 -47 0
-420 -48 0
5458 -420 0
-6558 -40 0
-6558 -41 0
-6558 42 0
7394 -6558 0
-1823 -31 0
-1823 -32 0
-1823 -33 0
8423 -1823 0
-7946 49 0
-7946 50 0
-7946 -51 0
-7946 6516 0
-8293 34 0
-8293 35 0
-8293 -36 0
-8293 6203 0
-404 -64 0
-404 -65 0
-404 -66 0
5816 -404 0
-5552 -58 0
-5552 -59 0
-5552 60 0
8060 -5552 0
-6540 -55 0
-6540 -56 0
-6540 57 0
9642 -6540 0
-9394 -37 0
-9394 38 0
-9394 -39 0
-9394 8030 0
-5471 -16 0
-5471 -17 0
-5471 18 0
8793 -5471 0
-6531 -28 0
-6531 -29 0
-6531 30 0
9633 -6531 0
-6490 -37 0
-6490 -38 0
-6490 -39 0
-6490 6336 0
-2461 -31 0
-2461 32 0
-2461 -33 0
8379 -2461 0
-8837 -13 0
-8837 -14 0
-8837 -15 0
-8837 8683 0
-2374 -34 0
-2374 -35 0
-2374 -36 0
9260 -2374 0
-8328 70 0
-8328 71 0
-8328 -72 0
-8328 6238 0
-6958 -52 0
-6958 53 0
-6958 -54 0
-6958 5418 0
-5850 -25 0
-5850 -26 0
-5850 27 0
6092 -5850 0
-2645 55 0
-2645 -56 0
-2645 -57 0
9355 -2645 0
-5961 -31 0
-5961 -32 0
-5961 33 0
6291 -5961 0
-9187 10 0
-9187 -11 0
-9187 -12 0
-9187 8791 0
-1076 -34 0
-1076 35 0
-1076 -36 0
5872 -1076 0
-194 -28 0
-194 -29 0
-194 30 0
9038 -194 0
-8864 31 0
-8864 32 0
-8864 -33 0
-8864 7368 0
-6385 -52 0
-6385 -53 0
-6385 54 0
9377 -6385 0
-6137 34 0
-6137 -35 0
-6137 -36 0
-6137 5543 0
-8236 58 0
-8236 59 0
-8236 -60 0
-8236 6080 0
-6587 -64 0
-6587 -65 0
-6587 66 0
7467 -6587 0
-476 16 0
-476 -17 0
-476 -18 0
5580 -476 0
-8563 52 0
-8563 -53 0
-8563 -54 0
-8563 8035 0
-6654 -67 0
-6654 -68 0
-6654 -69 0
-6654 6566 0
-2613 25 0
-2613 -26 0
-2613 -27 0
9323 -2613 0
-8469 28 0
-8469 -29 0
-8469 -30 0
-8469 7853 0
-8312 22 0
-8312 23 0
-8312 -24 0
-8312 6222 0
-6277 -55 0
-6277 -56 0
-6277 -57 0
-6277 6079 0
-7630 25 0
-7630 -26 0
-7630 -27 0
-7630 7058 0
-6038 67 0
-6038 -68 0
-6038 -69 0
-6038 5400 0
-678 -28 0
-678 -29 0
-678 30 0
9698 -678 0
-8628 -46 0
-8628 -47 0
-8628 -48 0
-8628 8474 0
-2278 -76 0
-2278 -77 0
-2278 -78 0
9142 -2278 0
-8542 52 0
-8542 -53 0
-8542 -54 0
-8542 7992 0
-1533 19 0
-1533 20 0
-1533 -21 0
6725 -1533 0
-6903 -22 0
-6903 -23 0
-6903 -24 0
-6903 6815 0
-9452 -10 0
-9452 -11 0
-9452 -12 0
-9452 9298 0
-6259 -70 0
-6259 -71 0
-6259 -72 0
-6259 6061 0
-273 -67 0
-273 -68 0
-273 69 0
9117 -273 0
-1924 70 0
-1924 71 0
-1924 -72 0
7336 -1924 0
-7727 49 0
-7727 -50 0
-7727 -51 0
-7727 7199 0
-235 -19 0
-235 -20 0
-235 21 0
9079 -235 0
-8277 52 0
-8277 53 0
-8277 -54 0
-8277 6165 0
-6847 52 0
-6847 -53 0
-6847 -54 0
-6847 6429 0
-7584 16 0
-7584 -17 0
-7584 -18 0
-7584 6968 0
-1025 -13 0
-1025 14 0
-1025 -15 0
5777 -1025 0
-6234 55 0
-6234 -56 0
-6234 -57 0
-6234 5662 0
-274 -70 0
-274 -71 0
-274 72 0
9118 -274 0
-107 -31 0
-107 -32 0
-107 33 0
8929 -107 0
-1923 67 0
-1923 68 0
-1923 -69 0
7335 -1923 0
-6132 19 0
-6132 -20 0
-6132 -21 0
-6132 5538 0
-519 -13 0
-519 -14 0
-519 15 0
9517 -519 0
-6739 -58 0
-6739 -59 0
-6739 60 0
7729 -6739 0
-6139 40 0
-6139 -41 0
-6139 -42 0
-6139 5545 0
-424 58 0
-424 -59 0
-424 -60 0
5462 -424 0
-8633 -61 0
-8633 -62 0
-8633 -63 0
-8633 8479 0
-8907 28 0
-8907 29 0
-8907 -30 0
-8907 7455 0
-7425 -70 0
-7425 71 0
-7425 -72 0
-7425 6171 0
-1115 -19 0
-1115 20 0
-1115 -21 0
5933 -1115 0
-360 -64 0
-360 -65 0
-360 66 0
9226 -360 0
-8916 55 0
-8916 56 0
-8916 -57 0
-8916 7464 0
-6266 -22 0
-6266 -23 0
-6266 -24 0
-6266 6068 0
-8323 55 0
-8323 56 0
-8323 -57 0
-8323 6233 0
-9366 -16 0
-9366 17 0
-9366 -18 0
-9366 7980 0
-5671 -22 0
-5671 -23 0
-5671 24 0
9015 -5671 0
-6578 -37 0
-6578 -38 0
-6578 39 0
7458 -6578 0
-9264 -43 0
-9264 44 0
-9264 -45 0
-9264 8098 0
-5915 -25 0
-5915 -26 0
-5915 27 0
6223 -5915 0
-8315 31 0
-8315 32 0
-8315 -33 0
-8315 6225 0
-7126 -25 0
-7126 26 0
-7126 -27 0
-7126 5652 0
-6774 -31 0
-6774 -32 0
-6774 -33 0
-6774 6686 0
-5398 -58 0
-5398 -59 0
-5398 60 0
8698 -5398 0
-7067 -49 0
-7067 50 0
-7067 -51 0
-7067 5571 0
-7820 64 0
-7820 65 0
-7820 -66 0
-7820 6368 0
-6302 -61 0
-6302 -62 0
-6302 -63 0
-6302 6104 0
-9490 -61 0
-9490 62 0
-9490 -63 0
-9490 8236 0
-9282 -28 0
-9282 29 0
-9282 -30 0
-9282 7830 0
-376 -46 0
-376 -47 0
-376 48 0
9242 -376 0
-1766 58 0
-1766 -59 0
-1766 -60 0
7904 -1766 0
-2216 22 0
-2216 -23 0
-2216 -24 0
8772 -2216 0
-6683 -19 0
-6683 -20 0
-6683 21 0
7607 -6683 0
-8989 10 0
-8989 11 0
-8989 -12 0
-8989 7581 0
-2100 70 0
-2100 71 0
-2100 -72 0
7666 -2100 0
-1227 -25 0
-1227 26 0
-1227 -27 0
6177 -1227 0
-5958 -22 0
-5958 -23 0
-5958 24 0
6288 -5958 0
-7676 28 0
-7676 -29 0
-7676 -30 0
-7676 7126 0
-8499 58 0
-8499 -59 0
-8499 -60 0
-8499 7927 0
-1082 -52 0
-1082 53 0
-1082 -54 0
5878 -1082 0
-2563 -73 0
-2563 74 0
-2563 -75 0
8569 -2563 0
-921 31 0
-921 -32 0
-921 -33 0
6487 -921 0
-2659 31 0
-2659 -32 0
-2659 -33 0
9391 -2659 0
-8841 -25 0
-8841 -26 0
-8841 -27 0
-8841 8687 0
-5817 -64 0
-5817 -65 0
-5817 66 0
9161 -5817 0
-698 -22 0
-698 -23 0
-698 24 0
9718 -698 0
-8304 67 0
-8304 68 0
-8304 -69 0
-8304 6214 0
-6425 -37 0
-6425 -38 0
-6425 39 0
7129 -6425 0
-6076 43 0
-6076 -44 0
-6076 -45 0
-6076 5438 0
-8423 28 0
-8423 -29 0
-8423 -30 0
-8423 7807 0
-8158 25 0
-8158 26 0
-8158 -27 0
-8158 6002 0
-9860 -49 0
-9860 -50 0
-9860 -51 0
-9860 9772 0
-6523 -67 0
-6523 -68 0
-6523 -69 0
-6523 6369 0
-6269 -31 0
-6269 -32 0
-6269 -33 0
-6269 6071 0
-8432 55 0
-8432 -56 0
-8432 -57 0
-8432 7816 0
-6103 55 0
-6103 -56 0
-6103 -57 0
-5808 -37 0
-5808 -38 0
-5808 39 0
9152 -5808 0
-6053 43 0
-6053 -44 0
-6053 -45 0
-6053 5415 0
-2640 40 0
-2640 -41 0
-2640 -42 0
9350 -2640 0
-8031 -37 0
-8031 -38 0
-8031 -39 0
-8031 7833 0
-723 -31 0
-723 -32 0
-723 -33 0
6531 -723 0
-1139 -25 0
-1139 26 0
-1139 -27 0
5979 -1139 0
-7162 -73 0
-7162 -74 0
-7162 -75 0
-7162 6964 0
-8536 34 0
-8536 -35 0
-8536 -36 0
-8536 7986 0
-7020 -43 0
-7020 44 0
-7020 -45 0
-7020 5502 0
-5969 -55 0
-5969 -56 0
-5969 57 0
6299 -5969 0
-2099 67 0
-2099 68 0
-2099 -69 0
7665 -2099 0
-8013 -52 0
-8013 -53 0
-8013 -54 0
-8013 7815 0
-2409 -73 0
-2409 74 0
-2409 -75 0
8283 -2409 0
-6884 31 0
-6884 -32 0
-6884 -33 0
-6884 6510 0
-5364 -25 0
-5364 -26 0
-5364 27 0
8884 -5364 0
-9474 -13 0
-9474 14 0
-9474 -15 0
-9474 8220 0
-517 -73 0
-517 -74 0
-517 -75 0
6039 -517 0
-8357 25 0
-8357 26 0
-8357 -27 0
-8357 6289 0
-8564 55 0
-8564 -56 0
-8564 -57 0
-8564 8036 0
-6386 -55 0
-6386 -56 0
-6386 57 0
9378 -6386 0
-1691 31 0
-1691 32 0
-1691 -33 0
6905 -1691 0
-2614 28 0
-2614 -29 0
-2614 -30 0
9324 -2614 0
-229 -67 0
-229 -68 0
-229 69 0
9073 -229 0
-8799 31 0
-8799 32 0
-8799 -33 0
-8799 7193 0
-2598 -46 0
-2598 -47 0
-2598 -48 0
9616 -2598 0
-9735 -70 0
-9735 -71 0
-9735 -72 0
-9735 9647 0
-1572 70 0
-1572 71 0
-1572 -72 0
6764 -1572 0
-6667 -40 0
-6667 -41 0
-6667 42 0
9769 -6667 0
-5793 -58 0
-5793 -59 0
-5793 -60 0
-5793 5705 0
-5598 -67 0
-5598 -68 0
-5598 -69 0
-5598 5400 0
-1303 55 0
-1303 -56 0
-1303 -57 0
7023 -1303 0
-193 -25 0
-193 -26 0
-193 27 0
9037 -193 0
-6377 -28 0
-6377 -29 0
-6377 30 0
9369 -6377 0
-8983 -58 0
-8983 -59 0
-8983 -60 0
-8983 8895 0
-6348 -70 0
-6348 -71 0
-6348 72 0
9318 -6348 0
-8555 28 0
-8555 -29 0
-8555 -30 0
-8555 8027 0
-6434 -64 0
-6434 -65 0
-6434 66 0
7138 -6434 0
-6660 -19 0
-6660 -20 0
-6660 21 0
9762 -6660 0
-8213 58 0
-8213 59 0
-8213 -60 0
-8213 6827 0
-879 37 0
-879 -38 0
-879 -39 0
6401 -879 0
-1984 52 0
-1984 53 0
-1984 -54 0
7440 -1984 0
-5679 -46 0
-5679 -47 0
-5679 48 0
9023 -5679 0
-8254 43 0
-8254 44 0
-8254 -45 0
-8254 6098 0
-7811 37 0
-7811 38 0
-7811 -39 0
-7811 6359 0
-8998 37 0
-8998 38 0
-8998 -39 0
-8998 7590 0
-1109 -67 0
-1109 68 0
-1109 -69 0
5905 -1109 0
-1331 73 0
-1331 -74 0
-1331 -75 0
7051 -1331 0
-677 -25 0
-677 -26 0
-677 27 0
9697 -677 0
-1207 -31 0
-1207 32 0
-1207 -33 0
6135 -1207 0
-1170 -52 0
-1170 -53 0
-1170 -54 0
7220 -1170 0
-93 -55 0
-93 -56 0
-93 57 0
8915 -93 0
-8040 -64 0
-8040 -65 0
-8040 -66 0
-8040 7842 0
-6839 28 0
-6839 -29 0
-6839 -30 0
-6839 6421 0
-8403 -31 0
-8403 -32 0
-8403 -33 0
-8403 8249 0
-1970 76 0
-1970 77 0
-1970 -78 0
7426 -1970 0
-8269 28 0
-8269 29 0
-8269 -30 0
-8269 6157 0
-6708 -31 0
-6708 -32 0
-6708 33 0
7676 -6708 0
-9007 64 0
-9007 65 0
-9007 -66 0
-9007 7599 0
-1110 -70 0
-1110 71 0
-1110 -72 0
5906 -1110 0
-8278 55 0
-8278 56 0
-8278 -57 0
-8278 6166 0
-1934 -34 0
-1934 -35 0
-1934 -36 0
8644 -1934 0
-7038 -31 0
-7038 32 0
-7038 -33 0
-7038 5542 0
-6848 55 0
-6848 -56 0
-6848 -57 0
-6848 6430 0
-8915 52 0
-8915 53 0
-8915 -54 0
-8915 7463 0
-6665 -34 0
-6665 -35 0
-6665 36 0
9767 -6665 0
-6911 -46 0
-6911 -47 0
-6911 -48 0
-6911 6823 0
-2191 13 0
-2191 -14 0
-2191 -15 0
8725 -2191 0
-230 -70 0
-230 -71 0
-230 72 0
9074 -230 0
-6820 34 0
-6820 -35 0
-6820 -36 0
-6820 6358 0
-6324 -67 0
-6324 -68 0
-6324 69 0
9514 -6324 0
-1767 61 0
-1767 -62 0
-1767 -63 0
7905 -1767 0
-456 22 0
-456 -23 0
-456 -24 0
5516 -456 0
-1571 67 0
-1571 68 0
-1571 -69 0
6763 -1571 0
-2133 37 0
-2133 38 0
-2133 -39 0
7743 -2133 0
-803 -73 0
-803 -74 0
-803 75 0
9845 -803 0
-6098 40 0
-6098 -41 0
-6098 -42 0
-1059 -49 0
-1059 -50 0
-1059 -51 0
6933 -1059 0
-1333 13 0
-1333 -14 0
-1333 -15 0
7075 -1333 0
-5799 -10 0
-5799 -11 0
-5799 12 0
9143 -5799 0
-9712 -67 0
-9712 68 0
-9712 -69 0
-9712 8634 0
-425 61 0
-425 -62 0
-425 -63 0
5463 -425 0
-1978 34 0
-1978 35 0
-1978 -36 0
7434 -1978 0
-6564 -58 0
-6564 -59 0
-6564 60 0
7400 -6564 0
-1228 -28 0
-1228 29 0
-1228 -30 0
6178 -1228 0
-7440 -49 0
-7440 50 0
-7440 -51 0
-7440 6208 0
-8392 -67 0
-8392 -68 0
-8392 -69 0
-8392 8238 0
-5648 -10 0
-5648 -11 0
-5648 -12 0
-6699 -67 0
-6699 -68 0
-6699 69 0
7623 -6699 0
-5439 -43 0
-5439 -44 0
-5439 45 0
-5630 -25 0
-5630 -26 0
-5630 -27 0
-5630 5432 0
-1164 -34 0
-1164 -35 0
-1164 -36 0
7214 -1164 0
-563 -13 0
-563 -14 0
-563 15 0
9561 -563 0
-9052 67 0
-9052 68 0
-9052 -69 0
-9052 7688 0
-9196 37 0
-9196 -38 0
-9196 -39 0
-9196 8800 0
-627 -73 0
-627 -74 0
-627 -75 0
6325 -627 0
-8796 22 0
-8796 23 0
-8796 -24 0
-8796 7190 0
-2326 -22 0
-2326 23 0
-2326 -24 0
8156 -2326 0
-5444 -58 0
-5444 -59 0
-5444 60 0
-8411 -55 0
-8411 -56 0
-8411 -57 0
-8411 8257 0
-7543 -25 0
-7543 -26 0
-7543 -27 0
-7543 7389 0
-5546 -40 0
-5546 -41 0
-5546 42 0
8054 -5546 0
-8464 13 0
-8464 -14 0
-8464 -15 0
-8464 7848 0
-6826 52 0
-6826 -53 0
-6826 -54 0
-6826 6364 0
-2137 49 0
-2137 50 0
-2137 -51 0
7747 -2137 0
-2038 -16 0
-2038 -17 0
-2038 -18 0
8858 -2038 0
-1055 -37 0
-1055 -38 0
-1055 -39 0
6929 -1055 0
-133 -43 0
-133 -44 0
-133 45 0
8955 -133 0
-6202 28 0
-6202 -29 0
-6202 -30 0
-6202 5630 0
-2495 -67 0
-2495 -68 0
-2495 -69 0
9491 -2495 0
-8431 52 0
-8431 -53 0
-8431 -54 0
-8431 7815 0
-9205 64 0
-9205 -65 0
-9205 -66 0
-9205 8809 0
-5425 -1 0
-5425 -2 0
-5425 3 0
-6507 -19 0
-6507 -20 0
-6507 -21 0
-6507 6353 0
-7580 73 0
-7580 -74 0
-7580 -75 0
-7580 6964 0
-2496 -70 0
-2496 -71 0
-2496 -72 0
9492 -2496 0
-1476 46 0
-1476 47 0
-1476 -48 0
6646 -1476 0
-7202 -55 0
-7202 -56 0
-7202 -57 0
-7202 7004 0
-88 -40 0
-88 -41 0
-88 42 0
8910 -88 0
-2076 64 0
-2076 65 0
-2076 -66 0
7642 -2076 0
-6569 -10 0
-6569 -11 0
-6569 12 0
7449 -6569 0
-883 49 0
-883 -50 0
-883 -51 0
6405 -883 0
-9352 -43 0
-9352 44 0
-9352 -45 0
-9352 7966 0
-8400 -22 0
-8400 -23 0
-8400 -24 0
-8400 8246 0
-8014 -55 0
-8014 -56 0
-8014 -57 0
-8014 7816 0
-8005 -28 0
-8005 -29 0
-8005 -30 0
-8005 7807 0
-1298 40 0
-1298 -41 0
-1298 -42 0
7018 -1298 0
-6465 -25 0
-6465 -26 0
-6465 27 0
7191 -6465 0
-1940 -52 0
-1940 -53 0
-1940 -54 0
8650 -1940 0
-954 -64 0
-954 -65 0
-954 -66 0
6806 -954 0
-305 -31 0
-305 -32 0
-305 33 0
9171 -305 0
-9639 -43 0
-9639 44 0
-9639 -45 0
-9639 8473 0
-2499 -13 0
-2499 14 0
-2499 -15 0
8483 -2499 0
-8807 55 0
-8807 56 0
-8807 -57 0
-8807 7201 0
-1140 -28 0
-1140 29 0
-1140 -30 0
5980 -1140 0
-950 -52 0
-950 -53 0
-950 -54 0
6802 -950 0
-9116 -61 0
-9116 -62 0
-9116 -63 0
-9116 9028 0
-1944 -64 0
-1944 -65 0
-1944 -66 0
8654 -1944 0
-8793 13 0
-8793 14 0
-8793 -15 0
-8793 7187 0
-787 -25 0
-787 -26 0
-787 27 0
9829 -787 0
-8486 19 0
-8486 -20 0
-8486 -21 0
-8486 7914 0
-9314 -55 0
-9314 56 0
-9314 -57 0
-9314 7862 0
-249 -61 0
-249 -62 0
-249 63 0
9093 -249 0
-5620 -64 0
-5620 -65 0
-5620 -66 0
-5620 5422 0
-9350 -37 0
-9350 38 0
-9350 -39 0
-9350 7964 0
-5515 -16 0
-5515 -17 0
-5515 18 0
8837 -5515 0
-6287 -16 0
-6287 -17 0
-6287 -18 0
-6287 6089 0
-2223 43 0
-2223 -44 0
-2223 -45 0
8779 -2223 0
-6102 52 0
-6102 -53 0
-6102 -54 0
-9468 -58 0
-9468 -59 0
-9468 -60 0
-9468 9314 0
-8672 46 0
-8672 47 0
-8672 -48 0
-8672 6978 0
-7800 73 0
-7800 74 0
-7800 -75 0
-7800 6568 0
-6333 -25 0
-6333 -26 0
-6333 27 0
9303 -6333 0
-6292 -31 0
-6292 -32 0
-6292 -33 0
-6292 6094 0
-5467 -70 0
-5467 -71 0
-5467 72 0
8767 -5467 0
-5981 -28 0
-5981 -29 0
-5981 -30 0
-5981 5827 0
-2072 52 0
-2072 53 0
-2072 -54 0
7638 -2072 0
-2653 13 0
-2653 -14 0
-2653 -15 0
9385 -2653 0
-9253 -10 0
-9253 11 0
-9253 -12 0
-9253 8087 0
-915 13 0
-915 -14 0
-915 -15 0
6481 -915 0
-5990 -55 0
-5990 -56 0
-5990 -57 0
-5990 5836 0
-705 -43 0
-705 -44 0
-705 45 0
9725 -705 0
-8493 40 0
-8493 -41 0
-8493 -42 0
-8493 7921 0
-1129 -61 0
-1129 62 0
-1129 -63 0
5947 -1129 0
-2045 -37 0
-2045 -38 0
-2045 -39 0
8865 -2045 0
-1048 -16 0
-1048 -17 0
-1048 -18 0
6922 -1048 0
-8220 10 0
-8220 11 0
-8220 -12 0
-8220 6064 0
-5735 -16 0
-5735 -17 0
-5735 18 0
8353 -5735 0
-693 -73 0
-693 -74 0
-693 75 0
9713 -693 0
-1315 25 0
-1315 -26 0
-1315 -27 0
7035 -1315 0
-7127 -28 0
-7127 29 0
-7127 -30 0
-7127 5653 0
-2102 76 0
-2102 77 0
-2102 -78 0
7668 -2102 0
-2464 -40 0
-2464 41 0
-2464 -42 0
8382 -2464 0
-8397 -13 0
-8397 -14 0
-8397 -15 0
-8397 8243 0
-6188 55 0
-6188 -56 0
-6188 -57 0
-6188 5616 0
-8491 34 0
-8491 -35 0
-8491 -36 0
-8491 7919 0
-9198 43 0
-9198 -44 0
-9198 -45 0
-9198 8802 0
-6179 28 0
-6179 -29 0
-6179 -30 0
-6179 5607 0
-5372 -49 0
-5372 -50 0
-5372 51 0
8892 -5372 0
-1278 -46 0
-1278 -47 0
-1278 -48 0
7350 -1278 0
-7266 -55 0
-7266 56 0
-7266 -57 0
-7266 5924 0
-209 -73 0
-209 -74 0
-209 75 0
9053 -209 0
-8677 61 0
-8677 62 0
-8677 -63 0
-8677 6983 0
-9359 -64 0
-9359 65 0
-9359 -66 0
-9359 7973 0
-8166 49 0
-8166 50 0
-8166 -51 0
-8166 6010 0
-9852 -25 0
-9852 -26 0
-9852 -27 0
-9852 9764 0
-1826 -40 0
-1826 -41 0
-1826 -42 0
8426 -1826 0
-9100 -13 0
-9100 -14 0
-9100 -15 0
-9100 9012 0
-717 -13 0
-717 -14 0
-717 -15 0
6525 -717 0
-1547 61 0
-1547 62 0
-1547 -63 0
6739 -1547 0
-7257 -28 0
-7257 29 0
-7257 -30 0
-7257 5915 0
-2275 -67 0
-2275 -68 0
-2275 -69 0
9139 -2275 0
-276 -76 0
-276 -77 0
-276 78 0
9120 -276 0
-7558 -70 0
-7558 -71 0
-7558 -72 0
-7558 7404 0
-2066 34 0
-2066 35 0
-2066 -36 0
7632 -2066 0
-1831 -55 0
-1831 -56 0
-1831 -57 0
8431 -1831 0
-7638 49 0
-7638 -50 0
-7638 -51 0
-7638 7066 0
-8965 70 0
-8965 71 0
-8965 -72 0
-8965 7557 0
-7851 19 0
-7851 20 0
-7851 -21 0
-502 -28 0
-502 -29 0
-502 -30 0
6024 -502 0
-8830 -61 0
-8830 -62 0
-8830 -63 0
-8830 8676 0
-2394 -28 0
-2394 29 0
-2394 -30 0
8268 -2394 0
-9758 73 0
-9758 -74 0
-9758 -75 0
-9758 9296 0
-1894 46 0
-1894 47 0
-1894 -48 0
7306 -1894 0
-944 -34 0
-944 -35 0
-944 -36 0
6796 -944 0
-872 16 0
-872 -17 0
-872 -18 0
6394 -872 0
-5382 -10 0
-5382 -11 0
-5382 12 0
8682 -5382 0
-2469 -55 0
-2469 56 0
-2469 -57 0
8387 -2469 0
-6731 -34 0
-6731 -35 0
-6731 36 0
7721 -6731 0
-9024 46 0
-9024 47 0
-9024 -48 0
-9024 7616 0
-6015 -61 0
-6015 -62 0
-6015 -63 0
-6015 5861 0
-7009 -10 0
-7009 11 0
-7009 -12 0
-7009 5491 0
-9844 67 0
-9844 -68 0
-9844 -69 0
-9844 9470 0
-7109 -43 0
-7109 44 0
-7109 -45 0
-7109 5635 0
-5851 -28 0
-5851 -29 0
-5851 30 0
6093 -5851 0
-2548 -28 0
-2548 29 0
-2548 -30 0
8554 -2548 0
-6503 -7 0
-6503 -8 0
-6503 -9 0
-6503 6349 0
-6733 -40 0
-6733 -41 0
-6733 42 0
7723 -6733 0
-525 -31 0
-525 -32 0
-525 33 0
9523 -525 0
-1174 -64 0
-1174 -65 0
-1174 -66 0
7224 -1174 0
-101 -13 0
-101 -14 0
-101 15 0
8923 -101 0
-6480 -70 0
-6480 -71 0
-6480 72 0
7206 -6480 0
-1031 -31 0
-1031 32 0
-1031 -33 0
5783 -1031 0
-9000 43 0
-9000 44 0
-9000 -45 0
-9000 7592 0
-7909 70 0
-7909 71 0
-7909 -72 0
-7909 6479 0
-8468 25 0
-8468 -26 0
-8468 -27 0
-8468 7852 0
-1988 64 0
-1988 65 0
-1988 -66 0
7444 -1988 0
-611 -25 0
-611 -26 0
-611 -27 0
6309 -611 0
-5831 -37 0
-5831 -38 0
-5831 39 0
8471 -5831 0
-9554 -55 0
-9554 56 0
-9554 -57 0
-9554 8366 0
-6765 -70 0
-6765 -71 0
-6765 72 0
7777 -6765 0
-5935 -22 0
-5935 -23 0
-5935 24 0
8619 -5935 0
-1926 76 0
-1926 77 0
-1926 -78 0
7338 -1926 0
-2276 -70 0
-2276 -71 0
-2276 -72 0
9140 -2276 0
-6010 -46 0
-6010 -47 0
-6010 -48 0
-6010 5856 0
-5626 -13 0
-5626 -14 0
-5626 -15 0
-5626 5428 0
-6726 -19 0
-6726 -20 0
-6726 21 0
7716 -6726 0
-9029 61 0
-9029 62 0
-9029 -63 0
-9029 7621 0
-2126 16 0
-2126 17 0
-2126 -18 0
7736 -2126 0
-2049 -49 0
-2049 -50 0
-2049 -51 0
8869 -2049 0
-6145 58 0
-6145 -59 0
-6145 -60 0
-6145 5551 0
-9545 -28 0
-9545 29 0
-9545 -30 0
-9545 8357 0
-8814 -13 0
-8814 -14 0
-8814 -15 0
-8814 8660 0
-569 -31 0
-569 -32 0
-569 33 0
9567 -569 0
-9326 -31 0
-9326 32 0
-9326 -33 0
-9326 7918 0
-6615 -16 0
-6615 -17 0
-6615 18 0
7539 -6615 0
-2498 -76 0
-2498 -77 0
-2498 -78 0
9494 -2498 0
-5955 -13 0
-5955 -14 0
-5955 15 0
6285 -5955 0
-788 -28 0
-788 -29 0
-788 30 0
9830 -788 0
-7018 -37 0
-7018 38 0
-7018 -39 0
-7018 5500 0
-2333 -43 0
-2333 44 0
-2333 -45 0
8163 -2333 0
-350 -34 0
-350 -35 0
-350 36 0
9216 -350 0
-7241 -43 0
-7241 44 0
-7241 -45 0
-7241 5855 0
-7432 -25 0
-7432 26 0
-7432 -27 0
-7432 6200 0
-5989 -52 0
-5989 -53 0
-5989 -54 0
-5989 5835 0
-9072 61 0
-9072 62 0
-9072 -63 0
-9072 7730 0
-5810 -43 0
-5810 -44 0
-5810 45 0
9154 -5810 0
-126 -22 0
-126 -23 0
-126 24 0
8948 -126 0
-1753 19 0
-1753 -20 0
-1753 -21 0
7891 -1753 0
-5840 -64 0
-5840 -65 0
-5840 66 0
8480 -5840 0
-5930 -70 0
-5930 -71 0
-5930 72 0
6238 -5930 0
-550 -40 0
-550 -41 0
-550 42 0
9548 -550 0
-487 49 0
-487 -50 0
-487 -51 0
5591 -487 0
-1316 28 0
-1316 -29 0
-1316 -30 0
7036 -1316 0
-6187 52 0
-6187 -53 0
-6187 -54 0
-6187 5615 0
-9056 13 0
-9056 14 0
-9056 -15 0
-9056 7714 0
-7314 -67 0
-7314 68 0
-7314 -69 0
-7314 6016 0
-5631 -28 0
-5631 -29 0
-5631 -30 0
-5631 5433 0
-8129 70 0
-8129 71 0
-8129 -72 0
-8129 5929 0
-1086 -64 0
-1086 65 0
-1086 -66 0
5882 -1086 0
-2505 -31 0
-2505 32 0
-2505 -33 0
8489 -2505 0
-5700 -40 0
-5700 -41 0
-5700 42 0
8252 -5700 0
-2629 73 0
-2629 -74 0
-2629 -75 0
9339 -2629 0
-299 -13 0
-299 -14 0
-299 15 0
9165 -299 0
-5846 -13 0
-5846 -14 0
-5846 15 0
6088 -5846 0
-8890 40 0
-8890 41 0
-8890 -42 0
-8890 7394 0
-7667 70 0
-7667 -71 0
-7667 -72 0
-7667 7117 0
-7027 -64 0
-7027 65 0
-7027 -66 0
-7027 5509 0
-7265 -52 0
-7265 53 0
-7265 -54 0
-7265 5923 0
-8613 -70 0
-8613 -71 0
-8613 -72 0
-8613 8459 0
-2420 -40 0
-2420 41 0
-2420 -42 0
8294 -2420 0
-9079 16 0
-9079 17 0
-9079 -18 0
-9079 7759 0
-2393 -25 0
-2393 26 0
-2393 -27 0
8267 -2393 0
-356 -52 0
-356 -53 0
-356 54 0
9222 -356 0
-8977 -40 0
-8977 -41 0
-8977 -42 0
-8977 8889 0
-501 -25 0
-501 -26 0
-501 -27 0
6023 -501 0
-8200 19 0
-8200 20 0
-8200 -21 0
-8200 6814 0
-6928 -31 0
-6928 32 0
-6928 -33 0
-6928 5696 0
-1112 -76 0
-1112 77 0
-1112 -78 0
5908 -1112 0
-6673 -58 0
-6673 -59 0
-6673 60 0
9775 -6673 0
-8856 -70 0
-8856 -71 0
-8856 -72 0
-8856 8702 0
-5787 -40 0
-5787 -41 0
-5787 -42 0
-5787 5699 0
-8309 13 0
-8309 14 0
-8309 -15 0
-8309 6219 0
-6679 -7 0
-6679 -8 0
-6679 9 0
7603 -6679 0
-9262 -37 0
-9262 38 0
-9262 -39 0
-9262 8096 0
-1155 -73 0
-1155 74 0
-1155 -75 0
5995 -1155 0
-483 37 0
-483 -38 0
-483 -39 0
5587 -483 0
-1546 58 0
-1546 59 0
-1546 -60 0
6738 -1546 0
-1685 13 0
-1685 14 0
-1685 -15 0
6899 -1685 0
-8451 43 0
-8451 -44 0
-8451 -45 0
-8451 7835 0
-6580 -43 0
-6580 -44 0
-6580 45 0
7460 -6580 0
-8720 61 0
-8720 62 0
-8720 -63 0
-8720 7070 0
-2425 -55 0
-2425 56 0
-2425 -57 0
8299 -2425 0
-1968 70 0
-1968 71 0
-1968 -72 0
7424 -1968 0
-6412 -67 0
-6412 -68 0
-6412 69 0
9426 -6412 0
-1201 -13 0
-1201 14 0
-1201 -15 0
6129 -1201 0
-9450 -73 0
-9450 -74 0
-9450 -75 0
-9450 9296 0
-5866 -13 0
-5866 -14 0
-5866 15 0
8528 -5866 0
-6548 -10 0
-6548 -11 0
-6548 12 0
7384 -6548 0
-5611 -37 0
-5611 -38 0
-5611 -39 0
-5611 5413 0
-9341 -10 0
-9341 11 0
-9341 -12 0
-9341 7955 0
-555 -55 0
-555 -56 0
-555 57 0
9553 -555 0
-9138 61 0
-9138 -62 0
-9138 -63 0
-9138 8676 0
-8970 -19 0
-8970 -20 0
-8970 -21 0
-8970 8882 0
-5943 -46 0
-5943 -47 0
-5943 48 0
8627 -5943 0
-8207 40 0
-8207 41 0
-8207 -42 0
-8207 6821 0
-5780 -19 0
-5780 -20 0
-5780 -21 0
-5780 5692 0
-232 -76 0
-232 -77 0
-232 78 0
9076 -232 0
-9122 13 0
-9122 -14 0
-9122 -15 0
-9122 8660 0
-8372 70 0
-8372 71 0
-8372 -72 0
-8372 6304 0
-1574 76 0
-1574 77 0
-1574 -78 0
6766 -1574 0
-612 -28 0
-612 -29 0
-612 -30 0
6310 -612 0
-8205 34 0
-8205 35 0
-8205 -36 0
-8205 6819 0
-7337 -70 0
-7337 -71 0
-7337 -72 0
-7337 7249 0
-5882 -61 0
-5882 -62 0
-5882 63 0
8544 -5882 0
-411 19 0
-411 -20 0
-411 -21 0
5449 -411 0
-2547 -25 0
-2547 26 0
-2547 -27 0
8553 -2547 0
-1128 -58 0
-1128 59 0
-1128 -60 0
5946 -1128 0
-6263 -13 0
-6263 -14 0
-6263 -15 0
-6263 6065 0
-6950 -28 0
-6950 29 0
-6950 -30 0
-6950 5410 0
-1339 31 0
-1339 -32 0
-1339 -33 0
7081 -1339 0
-248 -58 0
-248 -59 0
-248 60 0
9092 -248 0
-1243 -73 0
-1243 74 0
-1243 -75 0
6193 -1243 0
-7922 40 0
-7922 41 0
-7922 -42 0
-7922 5568 0
-8771 16 0
-8771 17 0
-8771 -18 0
-8771 7165 0
-9773 49 0
-9773 -50 0
-9773 -51 0
-9773 9311 0
-7122 -13 0
-7122 14 0
-7122 -15 0
-7122 5648 0
-9553 -52 0
-9553 53 0
-9553 -54 0
-9553 8365 0
-8704 13 0
-8704 14 0
-8704 -15 0
-8704 7054 0
-1967 67 0
-1967 68 0
-1967 -69 0
7423 -1967 0
-8975 -34 0
-8975 -35 0
-8975 -36 0
-8975 8887 0
-463 43 0
-463 -44 0
-463 -45 0
5523 -463 0
-9271 -64 0
-9271 65 0
-9271 -66 0
-9271 8105 0
-8056 -43 0
-8056 -44 0
-8056 -45 0
-8056 7858 0
-2197 31 0
-2197 -32 0
-2197 -33 0
8731 -2197 0
-5785 -34 0
-5785 -35 0
-5785 -36 0
-5785 5697 0
-8757 37 0
-8757 38 0
-8757 -39 0
-8757 7129 0
-8851 -55 0
-8851 -56 0
-8851 -57 0
-8851 8697 0
-7303 -34 0
-7303 35 0
-7303 -36 0
-7303 6005 0
-5501 -37 0
-5501 -38 0
-5501 39 0
7987 -5501 0
-889 67 0
-889 -68 0
-889 -69 0
6411 -889 0
-9741 22 0
-9741 -23 0
-9741 -24 0
-9741 9279 0
-496 76 0
-496 -77 0
-496 -78 0
5600 -496 0
-1283 -61 0
-1283 -62 0
-1283 -63 0
7355 -1283 0
-400 -52 0
-400 -53 0
-400 -54 0
5812 -400 0
-9049 58 0
-9049 59 0
-9049 -60 0
-9049 7685 0
-1099 -37 0
-1099 38 0
-1099 -39 0
5895 -1099 0
-8534 28 0
-8534 -29 0
-8534 -30 0
-8534 7984 0
-149 -25 0
-149 -26 0
-149 27 0
8971 -149 0
-6492 -43 0
-6492 -44 0
-6492 -45 0
-6492 6338 0
-8356 22 0
-8356 23 0
-8356 -24 0
-8356 6288 0
-9396 -43 0
-9396 44 0
-9396 -45 0
-9396 8032 0
-9015 19 0
-9015 20 0
-9015 -21 0
-9015 7607 0
-219 -37 0
-219 -38 0
-219 39 0
9063 -219 0
-9662 -49 0
-9662 50 0
-9662 -51 0
-9662 8540 0
-1542 46 0
-1542 47 0
-1542 -48 0
6734 -1542 0
-6609 -64 0
-6609 -65 0
-6609 66 0
7511 -6609 0
-2258 -16 0
-2258 -17 0
-2258 -18 0
9122 -2258 0
-9709 -58 0
-9709 59 0
-9709 -60 0
-9709 8631 0
-1585 43 0
-1585 44 0
-1585 -45 0
6777 -1585 0
-9106 -31 0
-9106 -32 0
-9106 -33 0
-9106 9018 0
-7984 25 0
-7984 26 0
-7984 -27 0
-7984 5652 0
-9227 64 0
-9227 -65 0
-9227 -66 0
-9227 8853 0
-8070 25 0
-8070 26 0
-8070 -27 0
-8070 6684 0
-2144 70 0
-2144 71 0
-2144 -72 0
7754 -2144 0
-8389 -58 0
-8389 -59 0
-8389 -60 0
-8389 8235 0
-5917 -31 0
-5917 -32 0
-5917 33 0
6225 -5917 0
-9462 -40 0
-9462 -41 0
-9462 -42 0
-9462 9308 0
-1727 -73 0
-1727 -74 0
-1727 -75 0
8217 -1727 0
-6600 -37 0
-6600 -38 0
-6600 39 0
7502 -6600 0
-1448 28 0
-1448 29 0
-1448 -30 0
6618 -1448 0
-1295 31 0
-1295 -32 0
-1295 -33 0
7015 -1295 0
-7298 -19 0
-7298 20 0
-7298 -21 0
-7298 6000 0
-8181 -28 0
-8181 -29 0
-8181 -30 0
-8181 8093 0
-5959 -25 0
-5959 -26 0
-5959 27 0
6289 -5959 0
-9306 -31 0
-9306 32 0
-9306 -33 0
-9306 7854 0
-1673 43 0
-1673 44 0
-1673 -45 0
6887 -1673 0
-1199 -73 0
-1199 74 0
-1199 -75 0
6127 -1199 0
-308 -40 0
-308 -41 0
-308 42 0
9174 -308 0
-8938 55 0
-8938 56 0
-8938 -57 0
-8938 7508 0
-7232 -16 0
-7232 17 0
-7232 -18 0
-7232 5846 0
-8367 55 0
-8367 56 0
-8367 -57 0
-8367 6299 0
-2143 67 0
-2143 68 0
-2143 -69 0
7753 -2143 0
-2411 -13 0
-2411 14 0
-2411 -15 0
8285 -2411 0
-7207 -10 0
-7207 11 0
-7207 -12 0
-7207 5821 0
-8929 28 0
-8929 29 0
-8929 -30 0
-8929 7499 0
-2489 -49 0
-2489 -50 0
-2489 -51 0
9485 -2489 0
-1561 37 0
-1561 38 0
-1561 -39 0
6753 -1561 0
-5898 -43 0
-5898 -44 0
-5898 45 0
8582 -5898 0
-7173 -37 0
-7173 -38 0
-7173 -39 0
-7173 6975 0
-8840 -22 0
-8840 -23 0
-8840 -24 0
-8840 8686 0
-8190 -55 0
-8190 -56 0
-8190 -57 0
-8190 8102 0
-9218 37 0
-9218 -38 0
-9218 -39 0
-9218 8844 0
-7678 34 0
-7678 -35 0
-7678 -36 0
-7678 7128 0
-244 -46 0
-244 -47 0
-244 48 0
9088 -244 0
-1699 55 0
-1699 56 0
-1699 -57 0
6913 -1699 0
-6001 -19 0
-6001 -20 0
-6001 -21 0
-6001 5847 0
-541 -13 0
-541 -14 0
-541 15 0
9539 -541 0
-890 70 0
-890 -71 0
-890 -72 0
6412 -890 0
-9441 -46 0
-9441 -47 0
-9441 -48 0
-9441 9287 0
-1215 -55 0
-1215 56 0
-1215 -57 0
6143 -1215 0
-9816 49 0
-9816 -50 0
-9816 -51 0
-9816 9420 0
-6300 -55 0
-6300 -56 0
-6300 -57 0
-6300 6102 0
-1124 -46 0
-1124 47 0
-1124 -48 0
5942 -1124 0
-85 -31 0
-85 -32 0
-85 33 0
8907 -85 0
-9284 -34 0
-9284 35 0
-9284 -36 0
-9284 7832 0
-7305 -40 0
-7305 41 0
-7305 -42 0
-7305 6007 0
-5952 -73 0
-5952 -74 0
-5952 75 0
8636 -5952 0
-1732 22 0
-1732 -23 0
-1732 -24 0
7870 -1732 0
-9301 -16 0
-9301 17 0
-9301 -18 0
-9301 7849 0
-832 -28 0
-832 -29 0
-832 -30 0
6662 -832 0
-7684 52 0
-7684 -53 0
-7684 -54 0
-7684 7134 0
-434 22 0
-434 -23 0
-434 -24 0
5472 -434 0
-8097 37 0
-8097 38 0
-8097 -39 0
-8097 5853 0
-367 -19 0
-367 -20 0
-367 21 0
9233 -367 0
-1210 -40 0
-1210 41 0
-1210 -42 0
6138 -1210 0
-6403 -40 0
-6403 -41 0
-6403 42 0
9417 -6403 0
-2485 -37 0
-2485 -38 0
-2485 -39 0
9481 -2485 0
-6267 -25 0
-6267 -26 0
-6267 -27 0
-6267 6069 0
-1565 49 0
-1565 50 0
-1565 -51 0
6757 -1565 0
-8216 67 0
-8216 68 0
-8216 -69 0
-8216 6830 0
-1065 -67 0
-1065 -68 0
-1065 -69 0
6939 -1065 0
-8637 10 0
-8637 11 0
-8637 -12 0
-8637 7229 0
-5914 -22 0
-5914 -23 0
-5914 24 0
6222 -5914 0
-8694 43 0
-8694 44 0
-8694 -45 0
-8694 7000 0
-8820 -31 0
-8820 -32 0
-8820 -33 0
-8820 8666 0
-8734 37 0
-8734 38 0
-8734 -39 0
-8734 7106 0
-5796 -67 0
-5796 -68 0
-5796 -69 0
-5796 5708 0
-7705 52 0
-7705 -53 0
-7705 -54 0
-7705 7177 0
-5595 -58 0
-5595 -59 0
-5595 -60 0
-5595 5397 0
-9509 -49 0
-9509 50 0
-9509 -51 0
-9509 8255 0
-6236 61 0
-6236 -62 0
-6236 -63 0
-6236 5664 0
-8986 -67 0
-8986 -68 0
-8986 -69 0
-8986 8898 0
-2384 -64 0
-2384 -65 0
-2384 -66 0
9270 -2384 0
-313 -55 0
-313 -56 0
-313 57 0
9179 -313 0
-394 -34 0
-394 -35 0
-394 -36 0
5806 -394 0
-9290 -52 0
-9290 53 0
-9290 -54 0
-9290 7838 0
-8663 19 0
-8663 20 0
-8663 -21 0
-8663 6969 0
-7520 -25 0
-7520 -26 0
-7520 -27 0
-7520 7366 0
-7783 22 0
-7783 23 0
-7783 -24 0
-7783 6551 0
-1694 40 0
-1694 41 0
-1694 -42 0
6908 -1694 0
-6855 10 0
-6855 -11 0
-6855 -12 0
-6855 6459 0
-8359 31 0
-8359 32 0
-8359 -33 0
-8359 6291 0
-7974 64 0
-7974 65 0
-7974 -66 0
-7974 5642 0
-7084 -37 0
-7084 38 0
-7084 -39 0
-7084 5610 0
-6396 -19 0
-6396 -20 0
-6396 21 0
9410 -6396 0
-6321 -58 0
-6321 -59 0
-6321 60 0
9511 -6321 0
-2255 73 0
-2255 -74 0
-2255 -75 0
8833 -2255 0
-7767 -37 0
-7767 -38 0
-7767 -39 0
-7767 7613 0
-8313 25 0
-8313 26 0
-8313 -27 0
-8313 6223 0
-8743 64 0
-8743 65 0
-8743 -66 0
-8743 7115 0
-1899 61 0
-1899 62 0
-1899 -63 0
7311 -1899 0
-5925 -55 0
-5925 -56 0
-5925 57 0
6233 -5925 0
-7000 -40 0
-7000 41 0
-7000 -42 0
-1103 -49 0
-1103 50 0
-1103 -51 0
5899 -1103 0
-7093 -64 0
-7093 65 0
-7093 -66 0
-7093 5619 0
-8511 28 0
-8511 -29 0
-8511 -30 0
-8511 7961 0
-223 -49 0
-223 -50 0
-223 51 0
9067 -223 0
-9179 52 0
-9179 -53 0
-9179 -54 0
-9179 8761 0
-8843 -31 0
-8843 -32 0
-8843 -33 0
-8843 8689 0
-8442 16 0
-8442 -17 0
-8442 -18 0
-8442 7826 0
-6121 52 0
-6121 -53 0
-6121 -54 0
-6121 5505 0
-6401 -34 0
-6401 -35 0
-6401 36 0
9415 -6401 0
-8520 55 0
-8520 -56 0
-8520 -57 0
-8520 7970 0
-1066 -70 0
-1066 -71 0
-1066 -72 0
6940 -1066 0
-8401 -25 0
-8401 -26 0
-8401 -27 0
-8401 8247 0
-150 -28 0
-150 -29 0
-150 30 0
8972 -150 0
-7553 -55 0
-7553 -56 0
-7553 -57 0
-7553 7399 0
-9062 31 0
-9062 32 0
-9062 -33 0
-9062 7720 0
-8725 10 0
-8725 11 0
-8725 -12 0
-8725 7097 0
-115 -55 0
-115 -56 0
-115 57 0
8937 -115 0
-8301 58 0
-8301 59 0
-8301 -60 0
-8301 6211 0
-2589 -19 0
-2589 -20 0
-2589 -21 0
9607 -2589 0
-6464 -22 0
-6464 -23 0
-6464 24 0
7190 -6464 0
-8502 67 0
-8502 -68 0
-8502 -69 0
-8502 7930 0
-263 -37 0
-263 -38 0
-263 39 0
9107 -263 0
-6864 37 0
-6864 -38 0
-6864 -39 0
-6864 6468 0
-924 40 0
-924 -41 0
-924 -42 0
6490 -924 0
-5570 -43 0
-5570 -44 0
-5570 45 0
5658 -5570 0
-7075 -10 0
-7075 11 0
-7075 -12 0
-7075 5601 0
-7965 37 0
-7965 38 0
-7965 -39 0
-7965 5633 0
-2093 49 0
-2093 50 0
-2093 -51 0
7659 -2093 0
-2662 40 0
-2662 -41 0
-2662 -42 0
9394 -2662 0
-7204 -61 0
-7204 -62 0
-7204 -63 0
-7204 7006 0
-8106 64 0
-8106 65 0
-8106 -66 0
-8106 5862 0
-9031 67 0
-9031 68 0
-9031 -69 0
-9031 7623 0
-1898 58 0
-1898 59 0
-1898 -60 0
7310 -1898 0
-9588 -25 0
-9588 -26 0
-9588 -27 0
-9588 9500 0
-5649 -13 0
-5649 -14 0
-5649 -15 0
-9607 -16 0
-9607 17 0
-9607 -18 0
-9607 8441 0
-6800 43 0
-6800 -44 0
-6800 -45 0
-6800 6338 0
-8896 58 0
-8896 59 0
-8896 -60 0
-8896 7400 0
-9336 -61 0
-9336 62 0
-9336 -63 0
-9336 7928 0
-9433 -22 0
-9433 -23 0
-9433 -24 0
-9433 9279 0
-7375 -49 0
-7375 50 0
-7375 -51 0
-7375 6077 0
-856 34 0
-856 -35 0
-856 -36 0
6378 -856 0
-5706 -58 0
-5706 -59 0
-5706 60 0
8258 -5706 0
-8646 37 0
-8646 38 0
-8646 -39 0
-8646 7238 0
-6204 34 0
-6204 -35 0
-6204 -36 0
-6204 5632 0
-2032 64 0
-2032 65 0
-2032 -66 0
7532 -2032 0
-6475 -55 0
-6475 -56 0
-6475 57 0
7201 -6475 0
-1817 -13 0
-1817 -14 0
-1817 -15 0
8417 -1817 0
-8189 -52 0
-8189 -53 0
-8189 -54 0
-8189 8101 0
-8797 25 0
-8797 26 0
-8797 -27 0
-8797 7191 0
-2637 31 0
-2637 -32 0
-2637 -33 0
9347 -2637 0
-2154 -34 0
-2154 -35 0
-2154 -36 0
8996 -2154 0
-8655 64 0
-8655 65 0
-8655 -66 0
-8655 7247 0
-7542 -22 0
-7542 -23 0
-7542 -24 0
-7542 7388 0
-2541 -73 0
-2541 74 0
-2541 -75 0
8525 -2541 0
-1447 25 0
-1447 26 0
-1447 -27 0
6617 -1447 0
-726 -40 0
-726 -41 0
-726 -42 0
6534 -726 0
-9320 -13 0
-9320 14 0
-9320 -15 0
-9320 7912 0
-9749 46 0
-9749 -47 0
-9749 -48 0
-9749 9287 0
-8937 52 0
-8937 53 0
-8937 -54 0
-8937 7507 0
-1950 16 0
-1950 17 0
-1950 -18 0
7406 -1950 0
-6017 -67 0
-6017 -68 0
-6017 -69 0
-6017 5863 0
-7776 -64 0
-7776 -65 0
-7776 -66 0
-7776 7622 0
-7005 -55 0
-7005 56 0
-7005 -57 0
-2455 -13 0
-2455 14 0
-2455 -15 0
8373 -2455 0
-6329 -13 0
-6329 -14 0
-6329 15 0
9299 -6329 0
-6873 64 0
-6873 -65 0
-6873 -66 0
-6873 6477 0
-1808 52 0
-1808 -53 0
-1808 -54 0
8012 -1808 0
-6450 -49 0
-6450 -50 0
-6450 51 0
9464 -6450 0
-1913 37 0
-1913 38 0
-1913 -39 0
7325 -1913 0
-7938 25 0
-7938 26 0
-7938 -27 0
-7938 6508 0
-338 -64 0
-338 -65 0
-338 66 0
9204 -338 0
-6818 28 0
-6818 -29 0
-6818 -30 0
-6818 6356 0
-9835 40 0
-9835 -41 0
-9835 -42 0
-9835 9461 0
-831 -25 0
-831 -26 0
-831 -27 0
6661 -831 0
-6210 52 0
-6210 -53 0
-6210 -54 0
-6210 5638 0
-6035 58 0
-6035 -59 0
-6035 -60 0
-6035 5397 0
-862 52 0
-862 -53 0
-862 -54 0
6384 -862 0
-7225 -64 0
-7225 65 0
-7225 -66 0
-7225 5839 0
-9128 31 0
-9128 -32 0
-9128 -33 0
-9128 8666 0
-7396 -43 0
-7396 44 0
-7396 -45 0
-7396 6098 0
-9828 19 0
-9828 -20 0
-9828 -21 0
-9828 9454 0
-2058 -76 0
-2058 -77 0
-2058 -78 0
8878 -2058 0
-661 -43 0
-661 -44 0
-661 45 0
9681 -661 0
-8766 64 0
-8766 65 0
-8766 -66 0
-8766 7138 0
-6651 -58 0
-6651 -59 0
-6651 -60 0
-6651 6563 0
-8710 31 0
-8710 32 0
-8710 -33 0
-8710 7060 0
-8615 -7 0
-8615 -8 0
-8615 -9 0
-8615 8461 0
-5510 -64 0
-5510 -65 0
-5510 66 0
7996 -5510 0
-7697 28 0
-7697 -29 0
-7697 -30 0
-7697 7169 0
-7706 55 0
-7706 -56 0
-7706 -57 0
-7706 7178 0
-8679 67 0
-8679 68 0
-8679 -69 0
-8679 6985 0
-731 -55 0
-731 -56 0
-731 -57 0
6539 -731 0
-6356 -25 0
-6356 -26 0
-6356 27 0
6994 -6356 0
-6467 -31 0
-6467 -32 0
-6467 33 0
7193 -6467 0
-7928 58 0
-7928 59 0
-7928 -60 0
-7928 5574 0
-6938 -61 0
-6938 62 0
-6938 -63 0
-6938 5706 0
-1917 49 0
-1917 50 0
-1917 -51 0
7329 -1917 0
-5536 -10 0
-5536 -11 0
-5536 12 0
8044 -5536 0
-2189 73 0
-2189 -74 0
-2189 -75 0
8723 -2189 0
-1467 19 0
-1467 20 0
-1467 -21 0
6637 -1467 0
-7100 -16 0
-7100 17 0
-7100 -18 0
-7100 5626 0
-1802 34 0
-1802 -35 0
-1802 -36 0
8006 -1802 0
-267 -49 0
-267 -50 0
-267 51 0
9111 -267 0
-6922 -13 0
-6922 14 0
-6922 -15 0
-6922 5690 0
-2089 37 0
-2089 38 0
-2089 -39 0
7655 -2089 0
-7791 46 0
-7791 47 0
-7791 -48 0
-7791 6559 0
-1282 -58 0
-1282 -59 0
-1282 -60 0
7354 -1282 0
-110 -40 0
-110 -41 0
-110 42 0
8932 -110 0
-9833 34 0
-9833 -35 0
-9833 -36 0
-9833 9459 0
-9180 55 0
-9180 -56 0
-9180 -57 0
-9180 8762 0
-6591 -10 0
-6591 -11 0
-6591 12 0
7493 -6591 0
-6742 -67 0
-6742 -68 0
-6742 69 0
7732 -6742 0
-8519 52 0
-8519 -53 0
-8519 -54 0
-8519 7969 0
-6122 55 0
-6122 -56 0
-6122 -57 0
-6122 5506 0
-749 -43 0
-749 -44 0
-749 45 0
9791 -749 0
-7545 -31 0
-7545 -32 0
-7545 -33 0
-7545 7391 0
-6113 28 0
-6113 -29 0
-6113 -30 0
-6113 5497 0
-7182 -64 0
-7182 -65 0
-7182 -66 0
-7182 6984 0
-2160 -52 0
-2160 -53 0
-2160 -54 0
9002 -2160 0
-2365 -73 0
-2365 74 0
-2365 -75 0
8195 -2365 0
-7216 -37 0
-7216 38 0
-7216 -39 0
-7216 5830 0
-1519 43 0
-1519 44 0
-1519 -45 0
6711 -1519 0
-9171 28 0
-9171 -29 0
-9171 -30 0
-9171 8753 0
-9209 10 0
-9209 -11 0
-9209 -12 0
-9209 8835 0
-2667 55 0
-2667 -56 0
-2667 -57 0
9399 -2667 0
-5872 -31 0
-5872 -32 0
-5872 33 0
8534 -5872 0
-929 55 0
-929 -56 0
-929 -57 0
6495 -929 0
-1975 25 0
-1975 26 0
-1975 -27 0
7431 -1975 0
-624 -64 0
-624 -65 0
-624 -66 0
6322 -624 0
-481 31 0
-481 -32 0
-481 -33 0
5585 -481 0
-6433 -61 0
-6433 -62 0
-6433 63 0
7137 -6433 0
-9488 -55 0
-9488 56 0
-9488 -57 0
-9488 8234 0
-7935 16 0
-7935 17 0
-7935 -18 0
-7935 6505 0
-9757 70 0
-9757 -71 0
-9757 -72 0
-9757 9295 0
-8034 -46 0
-8034 -47 0
-8034 -48 0
-8034 7836 0
-686 -52 0
-686 -53 0
-686 54 0
9706 -686 0
-9479 -28 0
-9479 29 0
-9479 -30 0
-9479 8225 0
-1161 -25 0
-1161 -26 0
-1161 -27 0
7211 -1161 0
-5964 -40 0
-5964 -41 0
-5964 42 0
6294 -5964 0
-1963 55 0
-1963 56 0
-1963 -57 0
7419 -1963 0
-6675 -64 0
-6675 -65 0
-6675 66 0
9777 -6675 0
-2430 -70 0
-2430 71 0
-2430 -72 0
8304 -2430 0
-8966 73 0
-8966 74 0
-8966 -75 0
-8966 7558 0
-9457 -25 0
-9457 -26 0
-9457 -27 0
-9457 9303 0
-8418 13 0
-8418 -14 0
-8418 -15 0
-8418 7802 0
-7478 -31 0
-7478 32 0
-7478 -33 0
-7478 6268 0
-7831 28 0
-7831 29 0
-7831 -30 0
-7831 5433 0
-5482 -49 0
-5482 -50 0
-5482 51 0
8804 -5482 0
-6344 -58 0
-6344 -59 0
-6344 60 0
9314 -6344 0
-560 -70 0
-560 -71 0
-560 72 0
9558 -560 0
-8997 34 0
-8997 35 0
-8997 -36 0
-8997 7589 0
-1370 58 0
-1370 -59 0
-1370 -60 0
7156 -1370 0
-2707 -43 0
-2707 -44 0
-2707 -45 0
9747 -2707 0
-871 13 0
-871 -14 0
-871 -15 0
6393 -871 0
-202 -52 0
-202 -53 0
-202 54 0
9046 -202 0
-2511 -49 0
-2511 50 0
-2511 -51 0
8495 -2511 0
-816 -46 0
-816 -47 0
-816 48 0
9858 -816 0
-102 -16 0
-102 -17 0
-102 18 0
8924 -102 0
-559 -67 0
-559 -68 0
-559 69 0
9557 -559 0
-1414 58 0
-1414 59 0
-1414 -60 0
6584 -1414 0
-6734 -43 0
-6734 -44 0
-6734 45 0
7724 -6734 0
-1310 76 0
-1310 -77 0
-1310 -78 0
7030 -1310 0
-8434 61 0
-8434 -62 0
-8434 -63 0
-8434 7818 0
-6428 -46 0
-6428 -47 0
-6428 48 0
7132 -6428 0
-957 -73 0
-957 -74 0
-957 -75 0
6809 -957 0
-5910 -10 0
-5910 -11 0
-5910 12 0
6218 -5910 0
-9585 -16 0
-9585 -17 0
-9585 -18 0
-9585 9497 0
-575 -49 0
-575 -50 0
-575 51 0
9573 -575 0
-9610 -25 0
-9610 26 0
-9610 -27 0
-9610 8444 0
-8039 -61 0
-8039 -62 0
-8039 -63 0
-8039 7841 0
-8999 40 0
-8999 41 0
-8999 -42 0
-8999 7591 0
-7910 73 0
-7910 74 0
-7910 -75 0
-7910 6480 0
-9244 -49 0
-9244 -50 0
-9244 -51 0
-9244 9156 0
-100 -76 0
-100 -77 0
-100 78 0
8922 -100 0
-7955 7 0
-7955 8 0
-7955 -9 0
-7955 5623 0
-8992 19 0
-8992 20 0
-8992 -21 0
-8992 7584 0
-5768 -49 0
-5768 -50 0
-5768 51 0
8408 -5768 0
-2199 37 0
-2199 -38 0
-2199 -39 0
8733 -2199 0
-9269 -58 0
-9269 59 0
-9269 -60 0
-9269 8103 0
-6766 -73 0
-6766 -74 0
-6766 75 0
7778 -6766 0
-5691 -13 0
-5691 -14 0
-5691 15 0
8243 -5691 0
-1849 43 0
-1849 44 0
-1849 -45 0
7261 -1849 0
-9524 -31 0
-9524 32 0
-9524 -33 0
-9524 8314 0
-2429 -67 0
-2429 68 0
-2429 -69 0
8303 -2429 0
-6666 -37 0
-6666 -38 0
-6666 39 0
9768 -6666 0
-2125 13 0
-2125 14 0
-2125 -15 0
7735 -2125 0
-1341 37 0
-1341 -38 0
-1341 -39 0
7083 -1341 0
-2079 73 0
-2079 74 0
-2079 -75 0
7645 -2079 0
-8881 13 0
-8881 14 0
-8881 -15 0
-8881 7385 0
-6808 67 0
-6808 -68 0
-6808 -69 0
-6808 6346 0
-8902 13 0
-8902 14 0
-8902 -15 0
-8902 7450 0
-763 -19 0
-763 -20 0
-763 21 0
9805 -763 0
-196 -34 0
-196 -35 0
-196 36 0
9040 -196 0
-571 -37 0
-571 -38 0
-571 39 0
9569 -571 0
-1074 -28 0
-1074 29 0
-1074 -30 0
5870 -1074 0
-1497 -43 0
-1497 -44 0
-1497 -45 0
7789 -1497 0
-8318 40 0
-8318 41 0
-8318 -42 0
-8318 6228 0
-8836 -10 0
-8836 -11 0
-8836 -12 0
-8836 8682 0
-1328 64 0
-1328 -65 0
-1328 -66 0
7048 -1328 0
-6129 10 0
-6129 -11 0
-6129 -12 0
-6129 5535 0
-7799 70 0
-7799 71 0
-7799 -72 0
-7799 6567 0
-9634 -28 0
-9634 29 0
-9634 -30 0
-9634 8468 0
-5468 -73 0
-5468 -74 0
-5468 75 0
8768 -5468 0
-2203 49 0
-2203 -50 0
-2203 -51 0
8737 -2203 0
-6568 -70 0
-6568 -71 0
-6568 72 0
7404 -6568 0
-1345 49 0
-1345 -50 0
-1345 -51 0
7087 -1345 0
-680 -34 0
-680 -35 0
-680 36 0
9700 -680 0
-1047 -13 0
-1047 -14 0
-1047 -15 0
6921 -1047 0
-8494 43 0
-8494 -44 0
-8494 -45 0
-8494 7922 0
-9195 34 0
-9195 -35 0
-9195 -36 0
-9195 8799 0
-916 16 0
-916 -17 0
-916 -18 0
6482 -916 0
-2654 16 0
-2654 -17 0
-2654 -18 0
9386 -2654 0
-9197 40 0
-9197 -41 0
-9197 -42 0
-9197 8801 0
-2677 19 0
-2677 -20 0
-2677 -21 0
9431 -2677 0
-6072 31 0
-6072 -32 0
-6072 -33 0
-6072 5434 0
-631 -19 0
-631 -20 0
-631 21 0
9651 -631 0
-6272 -40 0
-6272 -41 0
-6272 -42 0
-6272 6074 0
-600 -58 0
-600 -59 0
-600 60 0
9598 -600 0
-7858 40 0
-7858 41 0
-7858 -42 0
-8352 10 0
-8352 11 0
-8352 -12 0
-8352 6284 0
-7880 49 0
-7880 50 0
-7880 -51 0
-7880 6428 0
-8625 -37 0
-8625 -38 0
-8625 -39 0
-8625 8471 0
-800 -64 0
-800 -65 0
-800 66 0
9842 -800 0
-1931 -25 0
-1931 -26 0
-1931 -27 0
8641 -1931 0
-7025 -58 0
-7025 59 0
-7025 -60 0
-7025 5507 0
-969 -43 0
-969 44 0
-969 -45 0
5721 -969 0
-6207 43 0
-6207 -44 0
-6207 -45 0
-6207 5635 0
-8918 61 0
-8918 62 0
-8918 -63 0
-8918 7466 0
-9190 19 0
-9190 -20 0
-9190 -21 0
-9190 8794 0
-718 -16 0
-718 -17 0
-718 -18 0
6526 -718 0
-7280 -31 0
-7280 32 0
-7280 -33 0
-7280 5960 0
-2507 -37 0
-2507 38 0
-2507 -39 0
8491 -2507 0
-6067 16 0
-6067 -17 0
-6067 -18 0
-6067 5429 0
-1958 40 0
-1958 41 0
-1958 -42 0
7414 -1958 0
-7913 13 0
-7913 14 0
-7913 -15 0
-7913 5559 0
-1162 -28 0
-1162 -29 0
-1162 -30 0
7212 -1162 0
-6138 37 0
-6138 -38 0
-6138 -39 0
-6138 5544 0
-5788 -43 0
-5788 -44 0
-5788 -45 0
-5788 5700 0
-1836 -70 0
-1836 -71 0
-1836 -72 0
8436 -1836 0
-2560 -64 0
-2560 65 0
-2560 -66 0
8566 -2560 0
-8978 -43 0
-8978 -44 0
-8978 -45 0
-8978 8890 0
-5540 -22 0
-5540 -23 0
-5540 24 0
8048 -5540 0
-8802 40 0
-8802 41 0
-8802 -42 0
-8802 7196 0
-1230 -34 0
-1230 35 0
-1230 -36 0
6180 -1230 0
-1976 28 0
-1976 29 0
-1976 -30 0
7432 -1976 0
-9487 -52 0
-9487 53 0
-9487 -54 0
-9487 8233 0
-1686 16 0
-1686 17 0
-1686 -18 0
6900 -1686 0
-6579 -40 0
-6579 -41 0
-6579 42 0
7459 -6579 0
-8000 -13 0
-8000 -14 0
-8000 -15 0
-8000 7802 0
-1013 -43 0
-1013 44 0
-1013 -45 0
5765 -1013 0
-601 -61 0
-601 -62 0
-601 63 0
9599 -601 0
-7163 -7 0
-7163 -8 0
-7163 -9 0
-7163 6965 0
-8240 70 0
-8240 71 0
-8240 -72 0
-8240 6084 0
-6572 -19 0
-6572 -20 0
-6572 21 0
7452 -6572 0
-2474 -70 0
-2474 71 0
-2474 -72 0
8392 -2474 0
-9449 -70 0
-9449 -71 0
-9449 -72 0
-9449 9295 0
-1202 -16 0
-1202 17 0
-1202 -18 0
6130 -1202 0
-8208 43 0
-8208 44 0
-8208 -45 0
-8208 6822 0
-2622 52 0
-2622 -53 0
-2622 -54 0
9332 -2622 0
-2435 -19 0
-2435 20 0
-2435 -21 0
8331 -2435 0
-8062 -61 0
-8062 -62 0
-8062 -63 0
-8062 7864 0
-7338 -73 0
-7338 -74 0
-7338 -75 0
-7338 7250 0
-6532 -31 0
-6532 -32 0
-6532 33 0
9634 -6532 0
-2473 -67 0
-2473 68 0
-2473 -69 0
8391 -2473 0
-1033 -37 0
-1033 38 0
-1033 -39 0
5785 -1033 0
-8067 16 0
-8067 17 0
-8067 -18 0
-8067 6681 0
-527 -37 0
-527 -38 0
-527 39 0
9525 -527 0
-514 -64 0
-514 -65 0
-514 -66 0
6036 -514 0
-2652 76 0
-2652 -77 0
-2652 -78 0
9362 -2652 0
-5551 -55 0
-5551 -56 0
-5551 57 0
8059 -5551 0
-8250 31 0
-8250 32 0
-8250 -33 0
-8250 6094 0
-8406 -40 0
-8406 -41 0
-8406 -42 0
-8406 8252 0
-2406 -64 0
-2406 65 0
-2406 -66 0
8280 -2406 0
-1142 -34 0
-1142 35 0
-1142 -36 0
5982 -1142 0
-1835 -67 0
-1835 -68 0
-1835 -69 0
8435 -1835 0
-8245 16 0
-8245 17 0
-8245 -18 0
-8245 6089 0
-1599 -19 0
-1599 -20 0
-1599 -21 0
8067 -1599 0
-2271 -55 0
-2271 -56 0
-2271 -57 0
9135 -2271 0
-6147 64 0
-6147 -65 0
-6147 -66 0
-6147 5553 0
-6577 -34 0
-6577 -35 0
-6577 36 0
7457 -6577 0
-8747 7 0
-8747 8 0
-8747 -9 0
-8747 7119 0
-8016 -61 0
-8016 -62 0
-8016 -63 0
-8016 7818 0
-7863 55 0
-7863 56 0
-7863 -57 0
-5491 -7 0
-5491 -8 0
-5491 9 0
7977 -5491 0
-5650 -16 0
-5650 -17 0
-5650 -18 0
-8634 -64 0
-8634 -65 0
-8634 -66 0
-8634 8480 0
-1037 -49 0
-1037 50 0
-1037 -51 0
5789 -1037 0
-1073 -25 0
-1073 26 0
-1073 -27 0
5869 -1073 0
-7819 61 0
-7819 62 0
-7819 -63 0
-7819 6367 0
-2266 -40 0
-2266 -41 0
-2266 -42 0
9130 -2266 0
-7826 13 0
-7826 14 0
-7826 -15 0
-7826 5428 0
-5802 -19 0
-5802 -20 0
-5802 21 0
9146 -5802 0
-6048 28 0
-6048 -29 0
-6048 -30 0
-6048 5410 0
-2616 34 0
-2616 -35 0
-2616 -36 0
9326 -2616 0
-531 -49 0
-531 -50 0
-531 51 0
9529 -531 0
-6388 -61 0
-6388 -62 0
-6388 63 0
9380 -6388 0
-8566 61 0
-8566 -62 0
-8566 -63 0
-8566 8038 0
-7538 -10 0
-7538 -11 0
-7538 -12 0
-7538 7384 0
-8264 13 0
-8264 14 0
-8264 -15 0
-8264 6152 0
-1415 61 0
-1415 62 0
-1415 -63 0
6585 -1415 0
-2043 -31 0
-2043 -32 0
-2043 -33 0
8863 -2043 0
-5543 -31 0
-5543 -32 0
-5543 33 0
8051 -5543 0
-5724 -49 0
-5724 -50 0
-5724 51 0
8320 -5724 0
-6834 13 0
-6834 -14 0
-6834 -15 0
-6834 6416 0
-5410 -25 0
-5410 -26 0
-5410 27 0
7852 -5410 0
-9568 -31 0
-9568 32 0
-9568 -33 0
-9568 8402 0
-5402 -70 0
-5402 -71 0
-5402 72 0
8702 -5402 0
-1236 -52 0
-1236 53 0
-1236 -54 0
6186 -1236 0
-7757 -7 0
-7757 -8 0
-7757 -9 0
-7757 7603 0
-6500 -67 0
-6500 -68 0
-6500 -69 0
-6500 6346 0
-178 -46 0
-178 -47 0
-178 -48 0
5370 -178 0
-5809 -40 0
-5809 -41 0
-5809 42 0
9153 -5809 0
-9404 -67 0
-9404 68 0
-9404 -69 0
-9404 8040 0
-7352 -49 0
-7352 50 0
-7352 -51 0
-7352 6054 0
-7814 46 0
-7814 47 0
-7814 -48 0
-7814 6362 0
-1148 -52 0
-1148 53 0
-1148 -54 0
5988 -1148 0
-9287 -43 0
-9287 44 0
-9287 -45 0
-9287 7835 0
-6850 61 0
-6850 -62 0
-6850 -63 0
-6850 6432 0
-7517 -16 0
-7517 -17 0
-7517 -18 0
-7517 7363 0
-1371 61 0
-1371 -62 0
-1371 -63 0
7157 -1371 0
-1622 22 0
-1622 23 0
-1622 -24 0
6836 -1622 0
-1932 -28 0
-1932 -29 0
-1932 -30 0
8642 -1932 0
-2290 -46 0
-2290 47 0
-2290 -48 0
8120 -2290 0
-8280 61 0
-8280 62 0
-8280 -63 0
-8280 6168 0
-5807 -34 0
-5807 -35 0
-5807 36 0
9151 -5807 0
-6657 -10 0
-6657 -11 0
-6657 12 0
9759 -6657 0
-8130 73 0
-8130 74 0
-8130 -75 0
-8130 5930 0
-363 -73 0
-363 -74 0
-363 75 0
9229 -363 0
-896 22 0
-896 -23 0
-896 -24 0
6440 -896 0
-6460 -10 0
-6460 -11 0
-6460 12 0
7186 -6460 0
-7668 73 0
-7668 -74 0
-7668 -75 0
-7668 7118 0
-2303 -19 0
-2303 20 0
-2303 -21 0
8133 -2303 0
-300 -16 0
-300 -17 0
-300 18 0
9166 -300 0
-1380 -22 0
-1380 -23 0
-1380 -24 0
7562 -1380 0
-2576 -46 0
-2576 47 0
-2576 -48 0
8604 -2576 0
-8550 13 0
-8550 -14 0
-8550 -15 0
-8550 8022 0
-9357 -58 0
-9357 59 0
-9357 -60 0
-9357 7971 0
-7681 43 0
-7681 -44 0
-7681 -45 0
-7681 7131 0
-5906 -67 0
-5906 -68 0
-5906 69 0
8590 -5906 0
-1783 43 0
-1783 -44 0
-1783 -45 0
7943 -1783 0
-8614 -73 0
-8614 -74 0
-8614 -75 0
-8614 8460 0
-6372 -13 0
-6372 -14 0
-6372 15 0
9364 -6372 0
-8087 7 0
-8087 8 0
-8087 -9 0
-8087 5843 0
-2643 49 0
-2643 -50 0
-2643 -51 0
9353 -2643 0
-6404 -43 0
-6404 -44 0
-6404 45 0
9418 -6404 0
-182 -58 0
-182 -59 0
-182 -60 0
5374 -182 0
-7223 -58 0
-7223 59 0
-7223 -60 0
-7223 5837 0
-6037 64 0
-6037 -65 0
-6037 -66 0
-6037 5399 0
-9082 25 0
-9082 26 0
-9082 -27 0
-9082 7762 0
-7488 -61 0
-7488 62 0
-7488 -63 0
-7488 6278 0
-933 67 0
-933 -68 0
-933 -69 0
6499 -933 0
-1720 -52 0
-1720 -53 0
-1720 -54 0
8210 -1720 0
-6522 -64 0
-6522 -65 0
-6522 -66 0
-6522 6368 0
-1996 22 0
-1996 23 0
-1996 -24 0
7474 -1996 0
-2671 67 0
-2671 -68 0
-2671 -69 0
9403 -2671 0
-8121 46 0
-8121 47 0
-8121 -48 0
-8121 5921 0
-1192 -52 0
-1192 53 0
-1192 -54 0
6120 -1192 0
-6782 -55 0
-6782 -56 0
-6782 -57 0
-6782 6694 0
-7659 46 0
-7659 -47 0
-7659 -48 0
-7659 7109 0
-9518 -13 0
-9518 14 0
-9518 -15 0
-9518 8308 0
-6653 -64 0
-6653 -65 0
-6653 -66 0
-6653 6565 0
-2242 34 0
-2242 -35 0
-2242 -36 0
8820 -2242 0
-8605 -46 0
-8605 -47 0
-8605 -48 0
-8605 8451 0
-6588 -67 0
-6588 -68 0
-6588 69 0
7468 -6588 0
-736 -70 0
-736 -71 0
-736 -72 0
6544 -736 0
-8448 34 0
-8448 -35 0
-8448 -36 0
-8448 7832 0
-5397 -55 0
-5397 -56 0
-5397 57 0
8697 -5397 0
-6773 -28 0
-6773 -29 0
-6773 -30 0
-6773 6685 0
-5451 -22 0
-5451 -23 0
-5451 24 0
8751 -5451 0
-9370 -28 0
-9370 29 0
-9370 -30 0
-9370 7984 0
-407 -73 0
-407 -74 0
-407 -75 0
5819 -407 0
-326 -28 0
-326 -29 0
-326 30 0
9192 -326 0
-9534 -61 0
-9534 62 0
-9534 -63 0
-9534 8324 0
-5970 -58 0
-5970 -59 0
-5970 60 0
6300 -5970 0
-9033 10 0
-9033 11 0
-9033 -12 0
-9033 7669 0
-2087 31 0
-2087 32 0
-2087 -33 0
7653 -2087 0
-6883 28 0
-6883 -29 0
-6883 -30 0
-6883 6509 0
-6892 55 0
-6892 -56 0
-6892 -57 0
-6892 6518 0
-8227 31 0
-8227 32 0
-8227 -33 0
-8227 6071 0
-6972 -25 0
-6972 26 0
-6972 -27 0
-6972 5432 0
-7244 -52 0
-7244 53 0
-7244 -54 0
-7244 5858 0
-2580 -58 0
-2580 59 0
-2580 -60 0
8608 -2580 0
-7821 67 0
-7821 68 0
-7821 -69 0
-7821 6369 0
-984 -22 0
-984 23 0
-984 -24 0
5736 -984 0
-6644 -37 0
-6644 -38 0
-6644 -39 0
-6644 6556 0
-7429 -16 0
-7429 17 0
-7429 -18 0
-7429 6197 0
-8700 61 0
-8700 62 0
-8700 -63 0
-8700 7006 0
-735 -67 0
-735 -68 0
-735 -69 0
6543 -735 0
-6028 37 0
-6028 -38 0
-6028 -39 0
-6028 5390 0
-8373 -10 0
-8373 -11 0
-8373 -12 0
-8373 8219 0
-821 -61 0
-821 -62 0
-821 63 0
9863 -821 0
-6230 43 0
-6230 -44 0
-6230 -45 0
-6230 5658 0
-9693 -10 0
-9693 11 0
-9693 -12 0
-9693 8615 0
-5386 -22 0
-5386 -23 0
-5386 24 0
8686 -5386 0
-2371 -25 0
-2371 -26 0
-2371 -27 0
9257 -2371 0
-7588 28 0
-7588 -29 0
-7588 -30 0
-7588 6972 0
-2294 -58 0
-2294 59 0
-2294 -60 0
8124 -2294 0
-934 70 0
-934 -71 0
-934 -72 0
6500 -934 0
-6338 -40 0
-6338 -41 0
-6338 42 0
9308 -6338 0
-7472 -13 0
-7472 14 0
-7472 -15 0
-7472 6262 0
-2672 70 0
-2672 -71 0
-2672 -72 0
9404 -2672 0
-6618 -25 0
-6618 -26 0
-6618 27 0
7542 -6618 0
-8424 31 0
-8424 -32 0
-8424 -33 0
-8424 7808 0
-120 -70 0
-120 -71 0
-120 72 0
8942 -120 0
-261 -31 0
-261 -32 0
-261 33 0
9105 -261 0
-8025 -19 0
-8025 -20 0
-8025 -21 0
-8025 7827 0
-6080 55 0
-6080 -56 0
-6080 -57 0
-6080 5442 0
-7329 -46 0
-7329 -47 0
-7329 -48 0
-7329 7241 0
-8949 22 0
-8949 23 0
-8949 -24 0
-8949 7541 0
-6993 -19 0
-6993 20 0
-6993 -21 0
-2020 28 0
-2020 29 0
-2020 -30 0
7520 -2020 0
-1643 19 0
-1643 20 0
-1643 -21 0
6857 -1643 0
-7238 -34 0
-7238 35 0
-7238 -36 0
-7238 5852 0
-9395 -40 0
-9395 41 0
-9395 -42 0
-9395 8031 0
-2248 52 0
-2248 -53 0
-2248 -54 0
8826 -2248 0
-6278 -58 0
-6278 -59 0
-6278 -60 0
-6278 6080 0
-5818 -67 0
-5818 -68 0
-5818 69 0
9162 -5818 0
-6491 -40 0
-6491 -41 0
-6491 -42 0
-6491 6337 0
-6305 -10 0
-6305 -11 0
-6305 12 0
9495 -6305 0
-8774 25 0
-8774 26 0
-8774 -27 0
-8774 7168 0
-7672 16 0
-7672 -17 0
-7672 -18 0
-7672 7122 0
-8303 64 0
-8303 65 0
-8303 -66 0
-8303 6213 0
-8872 55 0
-8872 56 0
-8872 -57 0
-8872 7376 0
-9388 -19 0
-9388 20 0
-9388 -21 0
-9388 8024 0
-8235 55 0
-8235 56 0
-8235 -57 0
-8235 6079 0
-6484 -19 0
-6484 -20 0
-6484 -21 0
-6484 6330 0
-2257 -13 0
-2257 -14 0
-2257 -15 0
9121 -2257 0
-7274 -13 0
-7274 14 0
-7274 -15 0
-7274 5954 0
-9278 -16 0
-9278 17 0
-9278 -18 0
-9278 7826 0
-5895 -34 0
-5895 -35 0
-5895 36 0
8579 -5895 0
-1714 -34 0
-1714 -35 0
-1714 -36 0
8204 -1714 0
-1186 -34 0
-1186 35 0
-1186 -36 0
6114 -1186 0
-1247 -19 0
-1247 20 0
-1247 -21 0
6241 -1247 0
-8863 28 0
-8863 29 0
-8863 -30 0
-8863 7367 0
-1864 22 0
-1864 23 0
-1864 -24 0
7276 -1864 0
-7610 25 0
-7610 -26 0
-7610 -27 0
-7610 6994 0
-8653 58 0
-8653 59 0
-8653 -60 0
-8653 7245 0
-8324 58 0
-8324 59 0
-8324 -60 0
-8324 6234 0
-7290 -61 0
-7290 62 0
-7290 -63 0
-7290 5970 0
-2639 37 0
-2639 -38 0
-2639 -39 0
9349 -2639 0
-5389 -31 0
-5389 -32 0
-5389 33 0
8689 -5389 0
-162 -64 0
-162 -65 0
-162 66 0
8984 -162 0
-7893 22 0
-7893 23 0
-7893 -24 0
-7893 6463 0
-540 -76 0
-540 -77 0
-540 78 0
9538 -540 0
-5556 -70 0
-5556 -71 0
-5556 72 0
8064 -5556 0
-280 -22 0
-280 -23 0
-280 -24 0
5670 -280 0
-8908 31 0
-8908 32 0
-8908 -33 0
-8908 7456 0
-5601 -7 0
-5601 -8 0
-5601 -9 0
-5601 5403 0
-1046 -76 0
-1046 77 0
-1046 -78 0
5798 -1046 0
-5897 -40 0
-5897 -41 0
-5897 42 0
8581 -5897 0
-2412 -16 0
-2412 17 0
-2412 -18 0
8286 -2412 0
-6419 -19 0
-6419 -20 0
-6419 21 0
7123 -6419 0
-6489 -34 0
-6489 -35 0
-6489 -36 0
-6489 6335 0
-7045 -52 0
-7045 53 0
-7045 -54 0
-7045 5549 0
-8454 52 0
-8454 -53 0
-8454 -54 0
-8454 7838 0
-9393 -34 0
-9393 35 0
-9393 -36 0
-9393 8029 0
-6871 58 0
-6871 -59 0
-6871 -60 0
-6871 6475 0
-119 -67 0
-119 -68 0
-119 69 0
8941 -119 0
-5890 -19 0
-5890 -20 0
-5890 21 0
8574 -5890 0
-542 -16 0
-542 -17 0
-542 18 0
9540 -542 0
-1911 31 0
-1911 32 0
-1911 -33 0
7323 -1911 0
-8224 22 0
-8224 23 0
-8224 -24 0
-8224 6068 0
-8294 37 0
-8294 38 0
-8294 -39 0
-8294 6204 0
-6715 -52 0
-6715 -53 0
-6715 54 0
7683 -6715 0
-6749 -22 0
-6749 -23 0
-6749 24 0
7761 -6749 0
-6689 -37 0
-6689 -38 0
-6689 39 0
7613 -6689 0
-5951 -70 0
-5951 -71 0
-5951 72 0
8635 -5951 0
-5579 -10 0
-5579 -11 0
-5579 -12 0
-5579 5381 0
-7306 -43 0
-7306 44 0
-7306 -45 0
-7306 6008 0
-880 40 0
-880 -41 0
-880 -42 0
6402 -880 0
-8412 -58 0
-8412 -59 0
-8412 -60 0
-8412 8258 0
-2352 -34 0
-2352 35 0
-2352 -36 0
8182 -2352 0
-2534 -52 0
-2534 53 0
-2534 -54 0
8518 -2534 0
-2483 -31 0
-2483 -32 0
-2483 -33 0
9479 -2483 0
-584 -76 0
-584 -77 0
-584 78 0
9582 -584 0
-7106 -34 0
-7106 35 0
-7106 -36 0
-7106 5632 0
-1301 49 0
-1301 -50 0
-1301 -51 0
7021 -1301 0
-8258 55 0
-8258 56 0
-8258 -57 0
-8258 6102 0
-9849 -16 0
-9849 -17 0
-9849 -18 0
-9849 9761 0
-5645 -1 0
-5645 -2 0
-5645 -3 0
-9836 43 0
-9836 -44 0
-9836 -45 0
-9836 9462 0
-6526 -13 0
-6526 -14 0
-6526 15 0
9628 -6526 0
-1815 73 0
-1815 -74 0
-1815 -75 0
8019 -1815 0
-318 -70 0
-318 -71 0
-318 72 0
9184 -318 0
-8885 25 0
-8885 26 0
-8885 -27 0
-8885 7389 0
-5738 -25 0
-5738 -26 0
-5738 27 0
8356 -5738 0
-6781 -52 0
-6781 -53 0
-6781 -54 0
-6781 6693 0
-5597 -64 0
-5597 -65 0
-5597 -66 0
-5597 5399 0
-2176 34 0
-2176 -35 0
-2176 -36 0
8710 -2176 0
-5695 -25 0
-5695 -26 0
-5695 27 0
8247 -5695 0
-91 -49 0
-91 -50 0
-91 51 0
8913 -91 0
-6563 -55 0
-6563 -56 0
-6563 57 0
7399 -6563 0
-6314 -37 0
-6314 -38 0
-6314 39 0
9504 -6314 0
-7091 -58 0
-7091 59 0
-7091 -60 0
-7091 5617 0
-8006 -31 0
-8006 -32 0
-8006 -33 0
-8006 7808 0
-317 -67 0
-317 -68 0
-317 69 0
9183 -317 0
-8113 22 0
-8113 23 0
-8113 -24 0
-8113 5913 0
-6891 52 0
-6891 -53 0
-6891 -54 0
-6891 6517 0
-844 -64 0
-844 -65 0
-844 -66 0
6674 -844 0
-5659 -43 0
-5659 -44 0
-5659 -45 0
-8808 58 0
-8808 59 0
-8808 -60 0
-8808 7202 0
-5428 -10 0
-5428 -11 0
-5428 12 0
-7805 19 0
-7805 20 0
-7805 -21 0
-7805 6353 0
-8285 10 0
-8285 11 0
-8285 -12 0
-8285 6195 0
-9453 -13 0
-9453 -14 0
-9453 -15 0
-9453 9299 0
-6323 -64 0
-6323 -65 0
-6323 66 0
9513 -6323 0
-325 -25 0
-325 -26 0
-325 27 0
9191 -325 0
-6698 -64 0
-6698 -65 0
-6698 66 0
7622 -6698 0
-2134 40 0
-2134 41 0
-2134 -42 0
7744 -2134 0
-5588 -37 0
-5588 -38 0
-5588 -39 0
-5588 5390 0
-8741 58 0
-8741 59 0
-8741 -60 0
-8741 7113 0
-7402 -61 0
-7402 62 0
-7402 -63 0
-7402 6104 0
-8597 -22 0
-8597 -23 0
-8597 -24 0
-8597 8443 0
-2372 -28 0
-2372 -29 0
-2372 -30 0
9258 -2372 0
-2520 -76 0
-2520 77 0
-2520 -78 0
8504 -2520 0
-6552 -22 0
-6552 -23 0
-6552 24 0
7388 -6552 0
-5459 -46 0
-5459 -47 0
-5459 48 0
8759 -5459 0
-596 -46 0
-596 -47 0
-596 48 0
9594 -596 0
-6542 -61 0
-6542 -62 0
-6542 63 0
9644 -6542 0
-7651 22 0
-7651 -23 0
-7651 -24 0
-7651 7101 0
-9008 67 0
-9008 68 0
-9008 -69 0
-9008 7600 0
-1061 -55 0
-1061 -56 0
-1061 -57 0
6935 -1061 0
-5664 -58 0
-5664 -59 0
-5664 -60 0
-5518 -25 0
-5518 -26 0
-5518 27 0
8840 -5518 0
-9578 -61 0
-9578 62 0
-9578 -63 0
-9578 8412 0
-1097 -31 0
-1097 32 0
-1097 -33 0
5893 -1097 0
-8041 -67 0
-8041 -68 0
-8041 -69 0
-8041 7843 0
-9051 64 0
-9051 65 0
-9051 -66 0
-9051 7687 0
-6198 16 0
-6198 -17 0
-6198 -18 0
-6198 5626 0
-820 -58 0
-820 -59 0
-820 60 0
9862 -820 0
-1219 -67 0
-1219 68 0
-1219 -69 0
6147 -1219 0
-1460 64 0
-1460 65 0
-1460 -66 0
6630 -1460 0
-1366 46 0
-1366 -47 0
-1366 -48 0
7152 -1366 0
-5821 -7 0
-5821 -8 0
-5821 9 0
8461 -5821 0
-2019 25 0
-2019 26 0
-2019 -27 0
7519 -2019 0
-2182 52 0
-2182 -53 0
-2182 -54 0
8716 -2182 0
-2295 -61 0
-2295 62 0
-2295 -63 0
8125 -2295 0
-6792 19 0
-6792 -20 0
-6792 -21 0
-6792 6330 0
-1056 -40 0
-1056 -41 0
-1056 -42 0
6930 -1056 0
-7901 46 0
-7901 47 0
-7901 -48 0
-7901 6471 0
-9225 58 0
-9225 -59 0
-9225 -60 0
-9225 8851 0
-2167 -73 0
-2167 -74 0
-2167 -75 0
9009 -2167 0
-9711 -64 0
-9711 65 0
-9711 -66 0
-9711 8633 0
-2528 -34 0
-2528 35 0
-2528 -36 0
8512 -2528 0
-2358 -52 0
-2358 53 0
-2358 -54 0
8188 -2358 0
-2113 43 0
-2113 44 0
-2113 -45 0
7701 -2113 0
-8391 -64 0
-8391 -65 0
-8391 -66 0
-8391 8237 0
-6378 -31 0
-6378 -32 0
-6378 33 0
9370 -6378 0
-6757 -46 0
-6757 -47 0
-6757 48 0
7769 -6757 0
-6799 40 0
-6799 -41 0
-6799 -42 0
-6799 6337 0
-8556 31 0
-8556 -32 0
-8556 -33 0
-8556 8028 0
-1703 67 0
-1703 68 0
-1703 -69 0
6917 -1703 0
-7917 25 0
-7917 26 0
-7917 -27 0
-7917 5563 0
-8871 52 0
-8871 53 0
-8871 -54 0
-8871 7375 0
-6513 -37 0
-6513 -38 0
-6513 -39 0
-6513 6359 0
-217 -31 0
-217 -32 0
-217 33 0
9061 -217 0
-6607 -58 0
-6607 -59 0
-6607 60 0
7509 -6607 0
-2139 55 0
-2139 56 0
-2139 -57 0
7749 -2139 0
-2581 -61 0
-2581 62 0
-2581 -63 0
8609 -2581 0
-6019 10 0
-6019 -11 0
-6019 -12 0
-6019 5381 0
-1559 31 0
-1559 32 0
-1559 -33 0
6751 -1559 0
-8382 -37 0
-8382 -38 0
-8382 -39 0
-8382 8228 0
-6555 -31 0
-6555 -32 0
-6555 33 0
7391 -6555 0
-1818 -16 0
-1818 -17 0
-1818 -18 0
8418 -1818 0
-869 73 0
-869 -74 0
-869 -75 0
6391 -869 0
-9702 -37 0
-9702 38 0
-9702 -39 0
-9702 8624 0
-7112 -52 0
-7112 53 0
-7112 -54 0
-7112 5638 0
-1949 13 0
-1949 14 0
-1949 -15 0
7405 -1949 0
-1297 37 0
-1297 -38 0
-1297 -39 0
7017 -1297 0
-1423 19 0
-1423 20 0
-1423 -21 0
6593 -1423 0
-7321 -22 0
-7321 -23 0
-7321 -24 0
-7321 7233 0
-8957 46 0
-8957 47 0
-8957 -48 0
-8957 7549 0
-1704 70 0
-1704 71 0
-1704 -72 0
6918 -1704 0
-7507 -49 0
-7507 50 0
-7507 -51 0
-7507 6297 0
-5576 -61 0
-5576 -62 0
-5576 63 0
5664 -5576 0
-6435 -67 0
-6435 -68 0
-6435 69 0
7139 -6435 0
-6797 34 0
-6797 -35 0
-6797 -36 0
-6797 6335 0
-7198 -43 0
-7198 -44 0
-7198 -45 0
-7198 7000 0
-6716 -55 0
-6716 -56 0
-6716 57 0
7684 -6716 0
-885 55 0
-885 -56 0
-885 -57 0
6407 -885 0
-7037 -28 0
-7037 29 0
-7037 -30 0
-7037 5541 0
-1354 76 0
-1354 -77 0
-1354 -78 0
7096 -1354 0
-2456 -16 0
-2456 17 0
-2456 -18 0
8374 -2456 0
-183 -61 0
-183 -62 0
-183 -63 0
5375 -183 0
-9042 37 0
-9042 38 0
-9042 -39 0
-9042 7678 0
-9206 67 0
-9206 -68 0
-9206 -69 0
-9206 8810 0
-9562 -13 0
-9562 14 0
-9562 -15 0
-9562 8396 0
-1220 -70 0
-1220 71 0
-1220 -72 0
6148 -1220 0
-6840 31 0
-6840 -32 0
-6840 -33 0
-6840 6422 0
-1410 46 0
-1410 47 0
-1410 -48 0
6580 -1410 0
-2212 76 0
-2212 -77 0
-2212 -78 0
8746 -2212 0
-7046 -55 0
-7046 56 0
-7046 -57 0
-7046 5550 0
-6707 -28 0
-6707 -29 0
-6707 30 0
7675 -6707 0
-6635 -10 0
-6635 -11 0
-6635 -12 0
-6635 6547 0
-87 -37 0
-87 -38 0
-87 39 0
8909 -87 0
-8270 31 0
-8270 32 0
-8270 -33 0
-8270 6158 0
-6504 -10 0
-6504 -11 0
-6504 -12 0
-6504 6350 0
-9851 -22 0
-9851 -23 0
-9851 -24 0
-9851 9763 0
-6633 -70 0
-6633 -71 0
-6633 72 0
7557 -6633 0
-306 -34 0
-306 -35 0
-306 36 0
9172 -306 0
-9267 -52 0
-9267 53 0
-9267 -54 0
-9267 8101 0
-401 -55 0
-401 -56 0
-401 -57 0
5813 -401 0
-7439 -46 0
-7439 47 0
-7439 -48 0
-7439 6207 0
-5707 -61 0
-5707 -62 0
-5707 63 0
8259 -5707 0
-5416 -43 0
-5416 -44 0
-5416 45 0
7858 -5416 0
-9557 -64 0
-9557 65 0
-9557 -66 0
-9557 8369 0
-8897 61 0
-8897 62 0
-8897 -63 0
-8897 7401 0
-2188 70 0
-2188 -71 0
-2188 -72 0
8722 -2188 0
-7849 13 0
-7849 14 0
-7849 -15 0
-8108 70 0
-8108 71 0
-8108 -72 0
-8108 5864 0
-2364 -70 0
-2364 71 0
-2364 -72 0
8194 -2364 0
-6844 43 0
-6844 -44 0
-6844 -45 0
-6844 6426 0
-9063 34 0
-9063 35 0
-9063 -36 0
-9063 7721 0
-1761 43 0
-1761 -44 0
-1761 -45 0
7899 -1761 0
-8274 43 0
-8274 44 0
-8274 -45 0
-8274 6162 0
-8023 -13 0
-8023 -14 0
-8023 -15 0
-8023 7825 0
-2325 -19 0
-2325 20 0
-2325 -21 0
8155 -2325 0
-2551 -37 0
-2551 38 0
-2551 -39 0
8557 -2551 0
-9414 -28 0
-9414 29 0
-9414 -30 0
-9414 8050 0
-7536 -73 0
-7536 -74 0
-7536 -75 0
-7536 7382 0
-343 -13 0
-343 -14 0
-343 15 0
9209 -343 0
-2363 -67 0
-2363 68 0
-2363 -69 0
8193 -2363 0
-5702 -46 0
-5702 -47 0
-5702 48 0
8254 -5702 0
-8111 16 0
-8111 17 0
-8111 -18 0
-8111 5911 0
-8892 46 0
-8892 47 0
-8892 -48 0
-8892 7396 0
-5632 -31 0
-5632 -32 0
-5632 -33 0
-5632 5434 0
-9065 40 0
-9065 41 0
-9065 -42 0
-9065 7723 0
-1698 52 0
-1698 53 0
-1698 -54 0
6912 -1698 0
-166 -76 0
-166 -77 0
-166 78 0
8988 -166 0
-7778 -70 0
-7778 -71 0
-7778 -72 0
-7778 7624 0
-6992 -16 0
-6992 17 0
-6992 -18 0
-536 -64 0
-536 -65 0
-536 66 0
9534 -536 0
-5381 -7 0
-5381 -8 0
-5381 9 0
8681 -5381 0
-1214 -52 0
-1214 53 0
-1214 -54 0
6142 -1214 0
-2397 -37 0
-2397 38 0
-2397 -39 0
8271 -2397 0
-7649 16 0
-7649 -17 0
-7649 -18 0
-7649 7099 0
-1163 -31 0
-1163 -32 0
-1163 -33 0
7213 -1163 0
-505 -37 0
-505 -38 0
-505 -39 0
6027 -505 0
-9058 19 0
-9058 20 0
-9058 -21 0
-9058 7716 0
-5442 -52 0
-5442 -53 0
-5442 54 0
-6417 -13 0
-6417 -14 0
-6417 15 0
7121 -6417 0
-5627 -16 0
-5627 -17 0
-5627 -18 0
-5627 5429 0
-1042 -64 0
-1042 65 0
-1042 -66 0
5794 -1042 0
-2610 16 0
-2610 -17 0
-2610 -18 0
9320 -2610 0
-9548 -37 0
-9548 38 0
-9548 -39 0
-9548 8360 0
-5609 -31 0
-5609 -32 0
-5609 -33 0
-5609 5411 0
-2187 67 0
-2187 -68 0
-2187 -69 0
8721 -2187 0
-9097 70 0
-9097 71 0
-9097 -72 0
-9097 7777 0
-479 25 0
-479 -26 0
-479 -27 0
5583 -479 0
-8560 43 0
-8560 -44 0
-8560 -45 0
-8560 8032 0
-8595 -16 0
-8595 -17 0
-8595 -18 0
-8595 8441 0
-6382 -43 0
-6382 -44 0
-6382 45 0
9374 -6382 0
-1977 31 0
-1977 32 0
-1977 -33 0
7433 -1977 0
-2540 -70 0
-2540 71 0
-2540 -72 0
8524 -2540 0
-8968 -13 0
-8968 -14 0
-8968 -15 0
-8968 8880 0
-5617 -55 0
-5617 -56 0
-5617 -57 0
-5617 5419 0
-9347 -28 0
-9347 29 0
-9347 -30 0
-9347 7961 0
-8711 34 0
-8711 35 0
-8711 -36 0
-8711 7061 0
-1136 -16 0
-1136 17 0
-1136 -18 0
5976 -1136 0
-5936 -25 0
-5936 -26 0
-5936 27 0
8620 -5936 0
-5778 -13 0
-5778 -14 0
-5778 -15 0
-5778 5690 0
-6286 -13 0
-6286 -14 0
-6286 -15 0
-6286 6088 0
-8010 -43 0
-8010 -44 0
-8010 -45 0
-8010 7812 0
-5868 -19 0
-5868 -20 0
-5868 21 0
8530 -5868 0
-9356 -55 0
-9356 56 0
-9356 -57 0
-9356 7970 0
-7929 61 0
-7929 62 0
-7929 -63 0
-7929 5575 0
-7023 -52 0
-7023 53 0
-7023 -54 0
-7023 5505 0
-7269 -64 0
-7269 65 0
-7269 -66 0
-7269 5927 0
-1933 -31 0
-1933 -32 0
-1933 -33 0
8643 -1933 0
-8768 70 0
-8768 71 0
-8768 -72 0
-8768 7140 0
-5875 -40 0
-5875 -41 0
-5875 42 0
8537 -5875 0
-509 -49 0
-509 -50 0
-509 -51 0
6031 -509 0
-5512 -70 0
-5512 -71 0
-5512 72 0
7998 -5512 0
-312 -52 0
-312 -53 0
-312 54 0
9178 -312 0
-5984 -37 0
-5984 -38 0
-5984 -39 0
-5984 5830 0
-2401 -49 0
-2401 50 0
-2401 -51 0
8275 -2401 0
-6191 64 0
-6191 -65 0
-6191 -66 0
-6191 5619 0
-5680 -49 0
-5680 -50 0
-5680 51 0
9024 -5680 0
-9129 34 0
-9129 -35 0
-9129 -36 0
-9129 8667 0
-8198 13 0
-8198 14 0
-8198 -15 0
-8198 6812 0
-2042 -28 0
-2042 -29 0
-2042 -30 0
8862 -2042 0
-8706 19 0
-8706 20 0
-8706 -21 0
-8706 7056 0
-5993 -64 0
-5993 -65 0
-5993 -66 0
-5993 5839 0
-7505 -43 0
-7505 44 0
-7505 -45 0
-7505 6295 0
-9131 40 0
-9131 -41 0
-9131 -42 0
-9131 8669 0
-1208 -34 0
-1208 35 0
-1208 -36 0
6136 -1208 0
-7319 -16 0
-7319 -17 0
-7319 -18 0
-7319 7231 0
-9832 31 0
-9832 -32 0
-9832 -33 0
-9832 9458 0
-8086 73 0
-8086 74 0
-8086 -75 0
-8086 6700 0
-5873 -34 0
-5873 -35 0
-5873 36 0
8535 -5873 0
-8214 61 0
-8214 62 0
-8214 -63 0
-8214 6828 0
-5606 -22 0
-5606 -23 0
-5606 -24 0
-5606 5408 0
-419 43 0
-419 -44 0
-419 -45 0
5457 -419 0
-6182 37 0
-6182 -38 0
-6182 -39 0
-6182 5610 0
-7924 46 0
-7924 47 0
-7924 -48 0
-7924 5570 0
-455 19 0
-455 -20 0
-455 -21 0
5515 -455 0
-5794 -61 0
-5794 -62 0
-5794 -63 0
-5794 5706 0
-139 -61 0
-139 -62 0
-139 63 0
8961 -139 0
-9471 -67 0
-9471 -68 0
-9471 -69 0
-9471 9317 0
-8984 -61 0
-8984 -62 0
-8984 -63 0
-8984 8896 0
-8789 70 0
-8789 71 0
-8789 -72 0
-8789 7183 0
-2539 -67 0
-2539 68 0
-2539 -69 0
8523 -2539 0
-7184 -70 0
-7184 -71 0
-7184 -72 0
-7184 6986 0
-1224 -16 0
-1224 17 0
-1224 -18 0
6174 -1224 0
-8713 40 0
-8713 41 0
-8713 -42 0
-8713 7063 0
-396 -40 0
-396 -41 0
-396 -42 0
5808 -396 0
-7260 -37 0
-7260 38 0
-7260 -39 0
-7260 5918 0
-9124 19 0
-9124 -20 0
-9124 -21 0
-9124 8662 0
-6912 -49 0
-6912 -50 0
-6912 -51 0
-6912 6824 0
-2555 -49 0
-2555 50 0
-2555 -51 0
8561 -2555 0
-8219 7 0
-8219 8 0
-8219 -9 0
-8219 6063 0
-1692 34 0
-1692 35 0
-1692 -36 0
6906 -1692 0
-2215 19 0
-2215 -20 0
-2215 -21 0
8771 -2215 0
-9268 -55 0
-9268 56 0
-9268 -57 0
-9268 8102 0
-442 46 0
-442 -47 0
-442 -48 0
5480 -442 0
-114 -52 0
-114 -53 0
-114 54 0
8936 -114 0
-5975 -10 0
-5975 -11 0
-5975 -12 0
-5975 5821 0
-5533 -70 0
-5533 -71 0
-5533 72 0
8855 -5533 0
-138 -58 0
-138 -59 0
-138 60 0
8960 -138 0
-8912 43 0
-8912 44 0
-8912 -45 0
-8912 7460 0
-724 -34 0
-724 -35 0
-724 -36 0
6532 -724 0
-2254 70 0
-2254 -71 0
-2254 -72 0
8832 -2254 0
-2156 -40 0
-2156 -41 0
-2156 -42 0
8998 -2156 0
-8670 40 0
-8670 41 0
-8670 -42 0
-8670 6976 0
-9259 -28 0
-9259 29 0
-9259 -30 0
-9259 8093 0
-9107 -34 0
-9107 -35 0
-9107 -36 0
-9107 9019 0
-5449 -16 0
-5449 -17 0
-5449 18 0
8749 -5449 0
-1464 76 0
-1464 77 0
-1464 -78 0
6634 -1464 0
-6291 -28 0
-6291 -29 0
-6291 -30 0
-6291 6093 0
-1067 -73 0
-1067 -74 0
-1067 -75 0
6941 -1067 0
-7302 -31 0
-7302 32 0
-7302 -33 0
-7302 6004 0
-795 -49 0
-795 -50 0
-795 51 0
9837 -795 0
-697 -19 0
-697 -20 0
-697 21 0
9717 -697 0
-615 -37 0
-615 -38 0
-615 -39 0
6313 -615 0
-5829 -31 0
-5829 -32 0
-5829 33 0
8469 -5829 0
-8484 13 0
-8484 -14 0
-8484 -15 0
-8484 7912 0
-1350 64 0
-1350 -65 0
-1350 -66 0
7092 -1350 0
-7431 -22 0
-7431 23 0
-7431 -24 0
-7431 6199 0
-7128 -31 0
-7128 32 0
-7128 -33 0
-7128 5654 0
-5753 -70 0
-5753 -71 0
-5753 72 0
8371 -5753 0
-6680 -10 0
-6680 -11 0
-6680 12 0
7604 -6680 0
-7251 -10 0
-7251 11 0
-7251 -12 0
-7251 5909 0
-8500 61 0
-8500 -62 0
-8500 -63 0
-8500 7928 0
-674 -16 0
-674 -17 0
-674 18 0
9694 -674 0
-9859 -46 0
-9859 -47 0
-9859 -48 0
-9859 9771 0
-2660 34 0
-2660 -35 0
-2660 -36 0
9392 -2660 0
-9102 -19 0
-9102 -20 0
-9102 -21 0
-9102 9014 0
-9768 34 0
-9768 -35 0
-9768 -36 0
-9768 9306 0
-922 34 0
-922 -35 0
-922 -36 0
6488 -922 0
-2208 64 0
-2208 -65 0
-2208 -66 0
8742 -2208 0
-6547 -7 0
-6547 -8 0
-6547 9 0
7383 -6547 0
-9489 -58 0
-9489 59 0
-9489 -60 0
-9489 8235 0
-9109 -40 0
-9109 -41 0
-9109 -42 0
-9109 9021 0
-480 28 0
-480 -29 0
-480 -30 0
5584 -480 0
-1323 49 0
-1323 -50 0
-1323 -51 0
7043 -1323 0
-9338 -67 0
-9338 68 0
-9338 -69 0
-9338 7930 0
-1809 55 0
-1809 -56 0
-1809 -57 0
8013 -1809 0
-7123 -16 0
-7123 17 0
-7123 -18 0
-7123 5649 0
-190 -16 0
-190 -17 0
-190 18 0
9034 -190 0
-2253 67 0
-2253 -68 0
-2253 -69 0
8831 -2253 0
-6173 10 0
-6173 -11 0
-6173 -12 0
-6173 5601 0
-858 40 0
-858 -41 0
-858 -42 0
6380 -858 0
-9774 52 0
-9774 -53 0
-9774 -54 0
-9774 9312 0
-9022 40 0
-9022 41 0
-9022 -42 0
-9022 7614 0
-7954 73 0
-7954 74 0
-7954 -75 0
-7954 6524 0
-7024 -55 0
-7024 56 0
-7024 -57 0
-7024 5506 0
-8821 -34 0
-8821 -35 0
-8821 -36 0
-8821 8667 0
-9355 -52 0
-9355 53 0
-9355 -54 0
-9355 7969 0
-1198 -70 0
-1198 71 0
-1198 -72 0
6126 -1198 0
-1726 -70 0
-1726 -71 0
-1726 -72 0
8216 -1726 0
-1804 40 0
-1804 -41 0
-1804 -42 0
8008 -1804 0
-7015 -28 0
-7015 29 0
-7015 -30 0
-7015 5497 0
-8947 16 0
-8947 17 0
-8947 -18 0
-8947 7539 0
-5826 -22 0
-5826 -23 0
-5826 24 0
8466 -5826 0
-863 55 0
-863 -56 0
-863 -57 0
6385 -863 0
-580 -64 0
-580 -65 0
-580 66 0
9578 -580 0
-108 -34 0
-108 -35 0
-108 36 0
8930 -108 0
-1534 22 0
-1534 23 0
-1534 -24 0
6726 -1534 0
-8428 43 0
-8428 -44 0
-8428 -45 0
-8428 7812 0
-1319 37 0
-1319 -38 0
-1319 -39 0
7039 -1319 0
-8480 61 0
-8480 -62 0
-8480 -63 0
-8480 7864 0
-6740 -61 0
-6740 -62 0
-6740 63 0
7730 -6740 0
-730 -52 0
-730 -53 0
-730 -54 0
6538 -730 0
-891 73 0
-891 -74 0
-891 -75 0
6413 -891 0
-7976 70 0
-7976 71 0
-7976 -72 0
-7976 5644 0
-6724 -13 0
-6724 -14 0
-6724 15 0
7714 -6724 0
-5852 -31 0
-5852 -32 0
-5852 33 0
6094 -5852 0
-2516 -64 0
-2516 65 0
-2516 -66 0
8500 -2516 0
-6008 -40 0
-6008 -41 0
-6008 -42 0
-6008 5854 0
-8816 -19 0
-8816 -20 0
-8816 -21 0
-8816 8662 0
-937 -13 0
-937 -14 0
-937 -15 0
6789 -937 0
-5837 -55 0
-5837 -56 0
-5837 57 0
8477 -5837 0
-7891 16 0
-7891 17 0
-7891 -18 0
-7891 6461 0
-9539 -10 0
-9539 11 0
-9539 -12 0
-9539 8351 0
-2041 -25 0
-2041 -26 0
-2041 -27 0
8861 -2041 0
-6400 -31 0
-6400 -32 0
-6400 33 0
9414 -6400 0
-9604 -73 0
-9604 -74 0
-9604 -75 0
-9604 9516 0
-236 -22 0
-236 -23 0
-236 24 0
9080 -236 0
-2059 13 0
-2059 14 0
-2059 -15 0
7625 -2059 0
-7803 13 0
-7803 14 0
-7803 -15 0
-7803 6351 0
-848 -76 0
-848 -77 0
-848 -78 0
6678 -848 0
-6747 -16 0
-6747 -17 0
-6747 18 0
7759 -6747 0
-9455 -19 0
-9455 -20 0
-9455 -21 0
-9455 9301 0
-1116 -22 0
-1116 23 0
-1116 -24 0
5934 -1116 0
-2145 73 0
-2145 74 0
-2145 -75 0
7755 -2145 0
-791 -37 0
-791 -38 0
-791 39 0
9833 -791 0
-5847 -16 0
-5847 -17 0
-5847 18 0
6089 -5847 0
-2161 -55 0
-2161 -56 0
-2161 -57 0
9003 -2161 0
-619 -49 0
-619 -50 0
-619 -51 0
6317 -619 0
-1740 46 0
-1740 -47 0
-1740 -48 0
7878 -1740 0
-8823 -40 0
-8823 -41 0
-8823 -42 0
-8823 8669 0
-1197 -67 0
-1197 68 0
-1197 -69 0
6125 -1197 0
-2666 52 0
-2666 -53 0
-2666 -54 0
9398 -2666 0
-1725 -67 0
-1725 -68 0
-1725 -69 0
8215 -1725 0
-1075 -31 0
-1075 32 0
-1075 -33 0
5871 -1075 0
-6940 -67 0
-6940 68 0
-6940 -69 0
-6940 5708 0
-928 52 0
-928 -53 0
-928 -54 0
6494 -928 0
-8523 64 0
-8523 -65 0
-8523 -66 0
-8523 7973 0
-951 -55 0
-951 -56 0
-951 -57 0
6803 -951 0
-6987 -1 0
-6987 2 0
-6987 -3 0
-2462 -34 0
-2462 35 0
-2462 -36 0
8380 -2462 0
-2373 -31 0
-2373 -32 0
-2373 -33 0
9259 -2373 0
-5640 -55 0
-5640 -56 0
-5640 -57 0
-5640 5442 0
-9504 -34 0
-9504 35 0
-9504 -36 0
-9504 8250 0
-2597 -43 0
-2597 -44 0
-2597 -45 0
9615 -2597 0
-9595 -46 0
-9595 -47 0
-9595 -48 0
-9595 9507 0
-9625 -70 0
-9625 71 0
-9625 -72 0
-9625 8459 0
-8731 28 0
-8731 29 0
-8731 -30 0
-8731 7103 0
-9327 -34 0
-9327 35 0
-9327 -36 0
-9327 7919 0
-7090 -55 0
-7090 56 0
-7090 -57 0
-7090 5616 0
-2073 55 0
-2073 56 0
-2073 -57 0
7639 -2073 0
-7547 -37 0
-7547 -38 0
-7547 -39 0
-7547 7393 0
-1824 -34 0
-1824 -35 0
-1824 -36 0
8424 -1824 0
-1153 -67 0
-1153 68 0
-1153 -69 0
5993 -1153 0
-2085 25 0
-2085 26 0
-2085 -27 0
7651 -2085 0
-1242 -70 0
-1242 71 0
-1242 -72 0
6192 -1242 0
-7971 55 0
-7971 56 0
-7971 -57 0
-7971 5639 0
-1332 76 0
-1332 -77 0
-1332 -78 0
7052 -1332 0
-7081 -28 0
-7081 29 0
-7081 -30 0
-7081 5607 0
-8740 55 0
-8740 56 0
-8740 -57 0
-8740 7112 0
-2147 -13 0
-2147 -14 0
-2147 -15 0
8989 -2147 0
-2522 -16 0
-2522 17 0
-2522 -18 0
8506 -2522 0
-7945 46 0
-7945 47 0
-7945 -48 0
-7945 6515 0
-9118 -67 0
-9118 -68 0
-9118 -69 0
-9118 9030 0
-5842 -70 0
-5842 -71 0
-5842 72 0
8482 -5842 0
-5928 -64 0
-5928 -65 0
-5928 66 0
6236 -5928 0
-1154 -70 0
-1154 71 0
-1154 -72 0
5994 -1154 0
-1744 58 0
-1744 -59 0
-1744 -60 0
7882 -1744 0
-1969 73 0
-1969 74 0
-1969 -75 0
7425 -1969 0
-7915 19 0
-7915 20 0
-7915 -21 0
-7915 5561 0
-849 13 0
-849 -14 0
-849 -15 0
6371 -849 0
-7001 -43 0
-7001 44 0
-7001 -45 0
-7192 -25 0
-7192 -26 0
-7192 -27 0
-7192 6994 0
-1241 -67 0
-1241 68 0
-1241 -69 0
6191 -1241 0
-8069 22 0
-8069 23 0
-8069 -24 0
-8069 6683 0
-9329 -40 0
-9329 41 0
-9329 -42 0
-9329 7921 0
-7960 22 0
-7960 23 0
-7960 -24 0
-7960 5628 0
-7006 -58 0
-7006 59 0
-7006 -60 0
-9572 -43 0
-9572 44 0
-9572 -45 0
-9572 8406 0
-9742 25 0
-9742 -26 0
-9742 -27 0
-9742 9280 0
-8514 37 0
-8514 -38 0
-8514 -39 0
-8514 7964 0
-6469 -37 0
-6469 -38 0
-6469 39 0
7195 -6469 0
-2482 -28 0
-2482 -29 0
-2482 -30 0
9478 -2482 0
-9322 -19 0
-9322 20 0
-9322 -21 0
-9322 7914 0
-804 -76 0
-804 -77 0
-804 78 0
9846 -804 0
-7221 -52 0
-7221 53 0
-7221 -54 0
-7221 5835 0
-7720 28 0
-7720 -29 0
-7720 -30 0
-7720 7192 0
-1455 49 0
-1455 50 0
-1455 -51 0
6625 -1455 0
-835 -37 0
-835 -38 0
-835 -39 0
6665 -835 0
-7691 10 0
-7691 -11 0
-7691 -12 0
-7691 7163 0
-6717 -58 0
-6717 -59 0
-6717 60 0
7685 -6717 0
-8854 -64 0
-8854 -65 0
-8854 -66 0
-8854 8700 0
-1830 -52 0
-1830 -53 0
-1830 -54 0
8430 -1830 0
-1909 25 0
-1909 26 0
-1909 -27 0
7321 -1909 0
-9868 -73 0
-9868 -74 0
-9868 -75 0
-9868 9780 0
-9826 13 0
-9826 -14 0
-9826 -15 0
-9826 9452 0
-6536 -43 0
-6536 -44 0
-6536 45 0
9638 -6536 0
-6869 52 0
-6869 -53 0
-6869 -54 0
-6869 6473 0
-7047 -58 0
-7047 59 0
-7047 -60 0
-7047 5551 0
-8193 -64 0
-8193 -65 0
-8193 -66 0
-8193 8105 0
-6929 -34 0
-6929 35 0
-6929 -36 0
-6929 5697 0
-628 -76 0
-628 -77 0
-628 -78 0
6326 -628 0
-7807 25 0
-7807 26 0
-7807 -27 0
-7807 6355 0
-1558 28 0
-1558 29 0
-1558 -30 0
6750 -1558 0
-2468 -52 0
-2468 53 0
-2468 -54 0
8386 -2468 0
-8941 64 0
-8941 65 0
-8941 -66 0
-8941 7511 0
-7154 -49 0
-7154 -50 0
-7154 -51 0
-7154 6956 0
-2628 70 0
-2628 -71 0
-2628 -72 0
9338 -2628 0
-653 -19 0
-653 -20 0
-653 21 0
9673 -653 0
-134 -46 0
-134 -47 0
-134 48 0
8956 -134 0
-839 -49 0
-839 -50 0
-839 -51 0
6669 -839 0
-1795 13 0
-1795 -14 0
-1795 -15 0
7999 -1795 0
-446 58 0
-446 -59 0
-446 -60 0
5484 -446 0
-8651 52 0
-8651 53 0
-8651 -54 0
-8651 7243 0
-1451 37 0
-1451 38 0
-1451 -39 0
6621 -1451 0
-5693 -19 0
-5693 -20 0
-5693 21 0
8245 -5693 0
-6368 -61 0
-6368 -62 0
-6368 63 0
7006 -6368 0
-8370 64 0
-8370 65 0
-8370 -66 0
-8370 6302 0
-7963 31 0
-7963 32 0
-7963 -33 0
-7963 5631 0
-6597 -28 0
-6597 -29 0
-6597 30 0
7499 -6597 0
-9224 55 0
-9224 -56 0
-9224 -57 0
-9224 8850 0
-8883 19 0
-8883 20 0
-8883 -21 0
-8883 7387 0
-8184 -37 0
-8184 -38 0
-8184 -39 0
-8184 8096 0
-96 -64 0
-96 -65 0
-96 66 0
8918 -96 0
-9510 -52 0
-9510 53 0
-9510 -54 0
-9510 8256 0
-2068 40 0
-2068 41 0
-2068 -42 0
7634 -2068 0
-6931 -40 0
-6931 41 0
-6931 -42 0
-6931 5699 0
-5784 -31 0
-5784 -32 0
-5784 -33 0
-5784 5696 0
-9215 28 0
-9215 -29 0
-9215 -30 0
-9215 8841 0
-9165 10 0
-9165 -11 0
-9165 -12 0
-9165 8747 0
-8832 -67 0
-8832 -68 0
-8832 -69 0
-8832 8678 0
-6606 -55 0
-6606 -56 0
-6606 57 0
7508 -6606 0
-7060 -28 0
-7060 29 0
-7060 -30 0
-7060 5564 0
-8932 37 0
-8932 38 0
-8932 -39 0
-8932 7502 0
-1475 43 0
-1475 44 0
-1475 -45 0
6645 -1475 0
-2627 67 0
-2627 -68 0
-2627 -69 0
9337 -2627 0
-8974 -31 0
-8974 -32 0
-8974 -33 0
-8974 8886 0
-216 -28 0
-216 -29 0
-216 30 0
9060 -216 0
-9289 -49 0
-9289 50 0
-9289 -51 0
-9289 7837 0
-2170 16 0
-2170 -17 0
-2170 -18 0
8704 -2170 0
-7784 25 0
-7784 26 0
-7784 -27 0
-7784 6552 0
-7519 -22 0
-7519 -23 0
-7519 -24 0
-7519 7365 0
-6107 10 0
-6107 -11 0
-6107 -12 0
-6107 5491 0
-8204 31 0
-8204 32 0
-8204 -33 0
-8204 6818 0
-1306 64 0
-1306 -65 0
-1306 -66 0
7026 -1306 0
-1511 19 0
-1511 20 0
-1511 -21 0
6703 -1511 0
-2346 -16 0
-2346 17 0
-2346 -18 0
8176 -2346 0
-6924 -19 0
-6924 20 0
-6924 -21 0
-6924 5692 0
-946 -40 0
-946 -41 0
-946 -42 0
6798 -946 0
-1096 -28 0
-1096 29 0
-1096 -30 0
5892 -1096 0
-9300 -13 0
-9300 14 0
-9300 -15 0
-9300 7848 0
-7683 49 0
-7683 -50 0
-7683 -51 0
-7683 7133 0
-9842 61 0
-9842 -62 0
-9842 -63 0
-9842 9468 0
-741 -19 0
-741 -20 0
-741 21 0
9783 -741 0
-259 -25 0
-259 -26 0
-259 27 0
9103 -259 0
-5535 -7 0
-5535 -8 0
-5535 9 0
8043 -5535 0
-8077 46 0
-8077 47 0
-8077 -48 0
-8077 6691 0
-7136 -55 0
-7136 56 0
-7136 -57 0
-7136 5662 0
-548 -34 0
-548 -35 0
-548 36 0
9546 -548 0
-5622 -70 0
-5622 -71 0
-5622 -72 0
-5622 5424 0
-7937 22 0
-7937 23 0
-7937 -24 0
-7937 6507 0
-6125 64 0
-6125 -65 0
-6125 -66 0
-6125 5509 0
-7765 -31 0
-7765 -32 0
-7765 -33 0
-7765 7611 0
-7312 -61 0
-7312 62 0
-7312 -63 0
-7312 6014 0
-9183 64 0
-9183 -65 0
-9183 -66 0
-9183 8765 0
-1886 22 0
-1886 23 0
-1886 -24 0
7298 -1886 0
-7284 -43 0
-7284 44 0
-7284 -45 0
-7284 5964 0
-8739 52 0
-8739 53 0
-8739 -54 0
-8739 7111 0
-7700 37 0
-7700 -38 0
-7700 -39 0
-7700 7172 0
-1577 19 0
-1577 20 0
-1577 -21 0
6769 -1577 0
-2086 28 0
-2086 29 0
-2086 -30 0
7652 -2086 0
-6421 -25 0
-6421 -26 0
-6421 27 0
7125 -6421 0
-5507 -55 0
-5507 -56 0
-5507 57 0
7993 -5507 0
-327 -31 0
-327 -32 0
-327 33 0
9193 -327 0
-7168 -22 0
-7168 -23 0
-7168 -24 0
-7168 6970 0
-8763 55 0
-8763 56 0
-8763 -57 0
-8763 7135 0
-8845 -37 0
-8845 -38 0
-8845 -39 0
-8845 8691 0
-9469 -61 0
-9469 -62 0
-9469 -63 0
-9469 9315 0
-2418 -34 0
-2418 35 0
-2418 -36 0
8292 -2418 0
-157 -49 0
-157 -50 0
-157 51 0
8979 -157 0
-6893 58 0
-6893 -59 0
-6893 -60 0
-6893 6519 0
-2277 -73 0
-2277 -74 0
-2277 -75 0
9141 -2277 0
-7089 -52 0
-7089 53 0
-7089 -54 0
-7089 5615 0
-7996 61 0
-7996 62 0
-7996 -63 0
-7996 5664 0
-9305 -28 0
-9305 29 0
-9305 -30 0
-9305 7853 0
-8676 58 0
-8676 59 0
-8676 -60 0
-8676 6982 0
-7931 67 0
-7931 68 0
-7931 -69 0
-7931 5577 0
-7709 64 0
-7709 -65 0
-7709 -66 0
-7709 7181 0
-9587 -22 0
-9587 -23 0
-9587 -24 0
-9587 9499 0
-6783 -58 0
-6783 -59 0
-6783 -60 0
-6783 6695 0
-1180 -16 0
-1180 17 0
-1180 -18 0
6108 -1180 0
-1665 19 0
-1665 20 0
-1665 -21 0
6879 -1665 0
-447 61 0
-447 -62 0
-447 -63 0
5485 -447 0
-1708 -16 0
-1708 -17 0
-1708 -18 0
8198 -1708 0
-8095 31 0
-8095 32 0
-8095 -33 0
-8095 5851 0
-9434 -25 0
-9434 -26 0
-9434 -27 0
-9434 9280 0
-7376 -52 0
-7376 53 0
-7376 -54 0
-7376 6078 0
-8490 31 0
-8490 -32 0
-8490 -33 0
-8490 7918 0
-8361 37 0
-8361 38 0
-8361 -39 0
-8361 6293 0
-7222 -55 0
-7222 56 0
-7222 -57 0
-7222 5836 0
-352 -40 0
-352 -41 0
-352 42 0
9218 -352 0
-8616 -10 0
-8616 -11 0
-8616 -12 0
-8616 8462 0
-8175 -10 0
-8175 -11 0
-8175 -12 0
-8175 8087 0
-5496 -22 0
-5496 -23 0
-5496 24 0
7982 -5496 0
-9074 67 0
-9074 68 0
-9074 -69 0
-9074 7732 0
-9174 37 0
-9174 -38 0
-9174 -39 0
-9174 8756 0
-9464 -46 0
-9464 -47 0
-9464 -48 0
-9464 9310 0
-7296 -13 0
-7296 14 0
-7296 -15 0
-7296 5998 0
-7616 43 0
-7616 -44 0
-7616 -45 0
-7616 7000 0
-8752 22 0
-8752 23 0
-8752 -24 0
-8752 7124 0
-2481 -25 0
-2481 -26 0
-2481 -27 0
9477 -2481 0
-7179 -55 0
-7179 -56 0
-7179 -57 0
-7179 6981 0
-6116 37 0
-6116 -38 0
-6116 -39 0
-6116 5500 0
-8027 -25 0
-8027 -26 0
-8027 -27 0
-8027 7829 0
-8923 10 0
-8923 11 0
-8923 -12 0
-8923 7493 0
-7213 -28 0
-7213 29 0
-7213 -30 0
-7213 5827 0
-357 -55 0
-357 -56 0
-357 57 0
9223 -357 0
-1910 28 0
-1910 29 0
-1910 -30 0
7322 -1910 0
-7370 -34 0
-7370 35 0
-7370 -36 0
-7370 6072 0
-7556 -64 0
-7556 -65 0
-7556 -66 0
-7556 7402 0
-6394 -13 0
-6394 -14 0
-6394 15 0
9408 -6394 0
-5884 -67 0
-5884 -68 0
-5884 69 0
8546 -5884 0
-7171 -31 0
-7171 -32 0
-7171 -33 0
-7171 6973 0
-7527 -46 0
-7527 -47 0
-7527 -48 0
-7527 7373 0
-6870 55 0
-6870 -56 0
-6870 -57 0
-6870 6474 0
-7572 49 0
-7572 -50 0
-7572 -51 0
-7572 6956 0
-5860 -55 0
-5860 -56 0
-5860 57 0
6102 -5860 0
-5651 -19 0
-5651 -20 0
-5651 -21 0
-6861 28 0
-6861 -29 0
-6861 -30 0
-6861 6465 0
-692 -70 0
-692 -71 0
-692 72 0
9712 -692 0
-2424 -52 0
-2424 53 0
-2424 -54 0
8298 -2424 0
-375 -43 0
-375 -44 0
-375 45 0
9241 -375 0
-6014 -58 0
-6014 -59 0
-6014 -60 0
-6014 5860 0
-6730 -31 0
-6730 -32 0
-6730 33 0
7720 -6730 0
-9528 -43 0
-9528 44 0
-9528 -45 0
-9528 8318 0
-1745 61 0
-1745 -62 0
-1745 -63 0
7883 -1745 0
-2564 -76 0
-2564 77 0
-2564 -78 0
8570 -2564 0
-8652 55 0
-8652 56 0
-8652 -57 0
-8652 7244 0
-554 -52 0
-554 -53 0
-554 54 0
9552 -554 0
-7496 -16 0
-7496 17 0
-7496 -18 0
-7496 6286 0
-8103 55 0
-8103 56 0
-8103 -57 0
-8103 5859 0
-208 -70 0
-208 -71 0
-208 72 0
9052 -208 0
-8643 28 0
-8643 29 0
-8643 -30 0
-8643 7235 0
-7762 -22 0
-7762 -23 0
-7762 -24 0
-7762 7608 0
-1557 25 0
-1557 26 0
-1557 -27 0
6749 -1557 0
-5709 -67 0
-5709 -68 0
-5709 69 0
8261 -5709 0
-6605 -52 0
-6605 -53 0
-6605 54 0
7507 -6605 0
-215 -25 0
-215 -26 0
-215 27 0
9059 -215 0
-8899 67 0
-8899 68 0
-8899 -69 0
-8899 7403 0
-8873 58 0
-8873 59 0
-8873 -60 0
-8873 7377 0
-8505 10 0
-8505 -11 0
-8505 -12 0
-8505 7955 0
-6478 -64 0
-6478 -65 0
-6478 66 0
7204 -6478 0
-7448 -73 0
-7448 74 0
-7448 -75 0
-7448 6216 0
-2236 16 0
-2236 -17 0
-2236 -18 0
8814 -2236 0
-5499 -31 0
-5499 -32 0
-5499 33 0
7985 -5499 0
-387 -13 0
-387 -14 0
-387 -15 0
5799 -387 0
-9028 58 0
-9028 59 0
-9028 -60 0
-9028 7620 0
-207 -67 0
-207 -68 0
-207 69 0
9051 -207 0
-8722 67 0
-8722 68 0
-8722 -69 0
-8722 7072 0
-8755 31 0
-8755 32 0
-8755 -33 0
-8755 7127 0
-9223 52 0
-9223 -53 0
-9223 -54 0
-9223 8849 0
-1270 -22 0
-1270 -23 0
-1270 -24 0
7342 -1270 0
-6224 25 0
-6224 -26 0
-6224 -27 0
-6224 5652 0
-5919 -37 0
-5919 -38 0
-5919 39 0
6227 -5919 0
-6978 -43 0
-6978 44 0
-6978 -45 0
-6978 5438 0
-6410 -61 0
-6410 -62 0
-6410 63 0
9424 -6410 0
-2021 31 0
-2021 32 0
-2021 -33 0
7521 -2021 0
-9140 67 0
-9140 -68 0
-9140 -69 0
-9140 8678 0
-260 -28 0
-260 -29 0
-260 30 0
9104 -260 0
-7773 -55 0
-7773 -56 0
-7773 -57 0
-7773 7619 0
-518 -76 0
-518 -77 0
-518 -78 0
6040 -518 0
-2648 64 0
-2648 -65 0
-2648 -66 0
9358 -2648 0
-6209 49 0
-6209 -50 0
-6209 -51 0
-6209 5637 0
-7482 -43 0
-7482 44 0
-7482 -45 0
-7482 6272 0
-2410 -76 0
-2410 77 0
-2410 -78 0
8284 -2410 0
-1095 -25 0
-1095 26 0
-1095 -27 0
5891 -1095 0
-691 -67 0
-691 -68 0
-691 69 0
9711 -691 0
-8092 22 0
-8092 23 0
-8092 -24 0
-8092 5848 0
-153 -37 0
-153 -38 0
-153 39 0
8975 -153 0
-8661 13 0
-8661 14 0
-8661 -15 0
-8661 6967 0
-9536 -67 0
-9536 68 0
-9536 -69 0
-9536 8326 0
-909 61 0
-909 -62 0
-909 -63 0
6453 -909 0
-2388 -76 0
-2388 -77 0
-2388 -78 0
9274 -2388 0
-1135 -13 0
-1135 14 0
-1135 -15 0
5975 -1135 0
-2504 -28 0
-2504 29 0
-2504 -30 0
8488 -2504 0
-1705 73 0
-1705 74 0
-1705 -75 0
6919 -1705 0
-1721 -55 0
-1721 -56 0
-1721 -57 0
8211 -1721 0
-1358 22 0
-1358 -23 0
-1358 -24 0
7144 -1358 0
-8351 7 0
-8351 8 0
-8351 -9 0
-8351 6283 0
-9794 49 0
-9794 -50 0
-9794 -51 0
-9794 9376 0
-1635 61 0
-1635 62 0
-1635 -63 0
6849 -1635 0
-1193 -55 0
-1193 56 0
-1193 -57 0
6121 -1193 0
-7845 1 0
-7845 2 0
-7845 -3 0
-8009 -40 0
-8009 -41 0
-8009 -42 0
-8009 7811 0
-6570 -13 0
-6570 -14 0
-6570 15 0
7450 -6570 0
-868 70 0
-868 -71 0
-868 -72 0
6390 -868 0
-2165 -67 0
-2165 -68 0
-2165 -69 0
9007 -2165 0
-8804 46 0
-8804 47 0
-8804 -48 0
-8804 7198 0
-8002 -19 0
-8002 -20 0
-8002 -21 0
-8002 7804 0
-9431 -16 0
-9431 -17 0
-9431 -18 0
-9431 9277 0
-5876 -43 0
-5876 -44 0
-5876 45 0
8538 -5876 0
-7373 -43 0
-7373 44 0
-7373 -45 0
-7373 6075 0
-2443 -43 0
-2443 44 0
-2443 -45 0
8339 -2443 0
-8413 -61 0
-8413 -62 0
-8413 -63 0
-8413 8259 0
-1005 -19 0
-1005 20 0
-1005 -21 0
5757 -1005 0
-1221 -73 0
-1221 74 0
-1221 -75 0
6149 -1221 0
-9609 -22 0
-9609 23 0
-9609 -24 0
-9609 8443 0
-1317 31 0
-1317 -32 0
-1317 -33 0
7037 -1317 0
-1393 -61 0
-1393 -62 0
-1393 -63 0
7575 -1393 0
-8085 70 0
-8085 71 0
-8085 -72 0
-8085 6699 0
-7859 43 0
-7859 44 0
-7859 -45 0
-8050 -25 0
-8050 -26 0
-8050 -27 0
-8050 7852 0
-9132 43 0
-9132 -44 0
-9132 -45 0
-9132 8670 0
-7490 -67 0
-7490 68 0
-7490 -69 0
-7490 6280 0
-8249 28 0
-8249 29 0
-8249 -30 0
-8249 6093 0
-6700 -70 0
-6700 -71 0
-6700 72 0
7624 -6700 0
-9684 -49 0
-9684 50 0
-9684 -51 0
-9684 8584 0
-8835 -7 0
-8835 -8 0
-8835 -9 0
-8835 8681 0
-8809 61 0
-8809 62 0
-8809 -63 0
-8809 7203 0
-6066 13 0
-6066 -14 0
-6066 -15 0
-6066 5428 0
-8790 73 0
-8790 74 0
-8790 -75 0
-8790 7184 0
-8408 -46 0
-8408 -47 0
-8408 -48 0
-8408 8254 0
-8578 28 0
-8578 -29 0
-8578 -30 0
-8578 8050 0
-568 -28 0
-568 -29 0
-568 30 0
9566 -568 0
-1077 -37 0
-1077 38 0
-1077 -39 0
5873 -1077 0
-8007 -34 0
-8007 -35 0
-8007 -36 0
-8007 7809 0
-6586 -61 0
-6586 -62 0
-6586 63 0
7466 -6586 0
-2166 -70 0
-2166 -71 0
-2166 -72 0
9008 -2166 0
-867 67 0
-867 -68 0
-867 -69 0
6389 -867 0
-1402 22 0
-1402 23 0
-1402 -24 0
6572 -1402 0
-5545 -37 0
-5545 -38 0
-5545 39 0
8053 -5545 0
-2244 40 0
-2244 -41 0
-2244 -42 0
8822 -2244 0
-7864 58 0
-7864 59 0
-7864 -60 0
-789 -31 0
-789 -32 0
-789 33 0
9831 -789 0
-1223 -13 0
-1223 14 0
-1223 -15 0
6173 -1223 0
-1607 -43 0
-1607 -44 0
-1607 -45 0
8075 -1607 0
-8714 43 0
-8714 44 0
-8714 -45 0
-8714 7064 0
-7292 -67 0
-7292 68 0
-7292 -69 0
-7292 5972 0
-8557 34 0
-8557 -35 0
-8557 -36 0
-8557 8029 0
-6379 -34 0
-6379 -35 0
-6379 36 0
9371 -6379 0
-6143 52 0
-6143 -53 0
-6143 -54 0
-6143 5549 0
-6634 -73 0
-6634 -74 0
-6634 75 0
7558 -6634 0
-1338 28 0
-1338 -29 0
-1338 -30 0
7080 -1338 0
-5909 -7 0
-5909 -8 0
-5909 9 0
6217 -5909 0
-2249 55 0
-2249 -56 0
-2249 -57 0
8827 -2249 0
-9013 13 0
-9013 14 0
-9013 -15 0
-9013 7605 0
-2196 28 0
-2196 -29 0
-2196 -30 0
8730 -2196 0
-8266 19 0
-8266 20 0
-8266 -21 0
-8266 6154 0
-6836 19 0
-6836 -20 0
-6836 -21 0
-6836 6418 0
-9482 -37 0
-9482 38 0
-9482 -39 0
-9482 8228 0
-1813 67 0
-1813 -68 0
-1813 -69 0
8017 -1813 0
-613 -31 0
-613 -32 0
-613 -33 0
6311 -613 0
-8273 40 0
-8273 41 0
-8273 -42 0
-8273 6161 0
-492 64 0
-492 -65 0
-492 -66 0
5596 -492 0
-6843 40 0
-6843 -41 0
-6843 -42 0
-6843 6425 0
-7956 10 0
-7956 11 0
-7956 -12 0
-7956 5624 0
-1029 -25 0
-1029 26 0
-1029 -27 0
5781 -1029 0
-1081 -49 0
-1081 50 0
-1081 -51 0
5877 -1081 0
-523 -25 0
-523 -26 0
-523 27 0
9521 -523 0
-5800 -13 0
-5800 -14 0
-5800 15 0
9144 -5800 0
-6374 -19 0
-6374 -20 0
-6374 21 0
9366 -6374 0
-7535 -70 0
-7535 -71 0
-7535 -72 0
-7535 7381 0
-344 -16 0
-344 -17 0
-344 18 0
9210 -344 0
-8552 19 0
-8552 -20 0
-8552 -21 0
-8552 8024 0
-5816 -61 0
-5816 -62 0
-5816 63 0
9160 -5816 0
-9066 43 0
-9066 44 0
-9066 -45 0
-9066 7724 0
-8271 34 0
-8271 35 0
-8271 -36 0
-8271 6159 0
-5999 -13 0
-5999 -14 0
-5999 -15 0
-5999 5845 0
-5422 -61 0
-5422 -62 0
-5422 63 0
7864 -5422 0
-6841 34 0
-6841 -35 0
-6841 -36 0
-6841 6423 0
-6347 -67 0
-6347 -68 0
-6347 69 0
9317 -6347 0
-6672 -55 0
-6672 -56 0
-6672 57 0
9774 -6672 0
-1775 19 0
-1775 -20 0
-1775 -21 0
7935 -1775 0
-6381 -40 0
-6381 -41 0
-6381 42 0
9373 -6381 0
-9491 -64 0
-9491 65 0
-9491 -66 0
-9491 8237 0
-1188 -40 0
-1188 41 0
-1188 -42 0
6116 -1188 0
-6796 31 0
-6796 -32 0
-6796 -33 0
-6796 6334 0
-588 -22 0
-588 -23 0
-588 24 0
9586 -588 0
-9098 73 0
-9098 74 0
-9098 -75 0
-9098 7778 0
-1814 70 0
-1814 -71 0
-1814 -72 0
8018 -1814 0
-8559 40 0
-8559 -41 0
-8559 -42 0
-8559 8031 0
-7812 40 0
-7812 41 0
-7812 -42 0
-7812 6360 0
-1716 -40 0
-1716 -41 0
-1716 -42 0
8206 -1716 0
-319 -73 0
-319 -74 0
-319 75 0
9185 -319 0
-2311 -43 0
-2311 44 0
-2311 -45 0
8141 -2311 0
-2609 13 0
-2609 -14 0
-2609 -15 0
9319 -2609 0
-6663 -28 0
-6663 -29 0
-6663 30 0
9765 -6663 0
-2535 -55 0
-2535 56 0
-2535 -57 0
8519 -2535 0
-8623 -31 0
-8623 -32 0
-8623 -33 0
-8623 8469 0
-2054 -64 0
-2054 -65 0
-2054 -66 0
8874 -2054 0
-7267 -58 0
-7267 59 0
-7267 -60 0
-7267 5925 0
-7953 70 0
-7953 71 0
-7953 -72 0
-7953 6523 0
-7827 16 0
-7827 17 0
-7827 -18 0
-7827 5429 0
-6524 -70 0
-6524 -71 0
-6524 -72 0
-6524 6370 0
-8420 19 0
-8420 -20 0
-8420 -21 0
-8420 7804 0
-9739 16 0
-9739 -17 0
-9739 -18 0
-9739 9277 0
-6459 -7 0
-6459 -8 0
-6459 9 0
7185 -6459 0
-7748 -49 0
-7748 -50 0
-7748 -51 0
-7748 7594 0
-2132 34 0
-2132 35 0
-2132 -36 0
7742 -2132 0
-2503 -25 0
-2503 26 0
-2503 -27 0
8487 -2503 0
-7832 31 0
-7832 32 0
-7832 -33 0
-7832 5434 0
-342 -76 0
-342 -77 0
-342 78 0
9208 -342 0
-8032 -40 0
-8032 -41 0
-8032 -42 0
-8032 7834 0
-6189 58 0
-6189 -59 0
-6189 -60 0
-6189 5617 0
-8427 40 0
-8427 -41 0
-8427 -42 0
-8427 7811 0
-1983 49 0
-1983 50 0
-1983 -51 0
7439 -1983 0
-5966 -46 0
-5966 -47 0
-5966 48 0
6296 -5966 0
-9006 61 0
-9006 62 0
-9006 -63 0
-9006 7598 0
-1935 -37 0
-1935 -38 0
-1935 -39 0
8645 -1935 0
-8088 10 0
-8088 11 0
-8088 -12 0
-8088 5844 0
-6544 -67 0
-6544 -68 0
-6544 69 0
9646 -6544 0
-1169 -49 0
-1169 -50 0
-1169 -51 0
7219 -1169 0
-2699 -19 0
-2699 -20 0
-2699 -21 0
9739 -2699 0
-9473 -10 0
-9473 11 0
-9473 -12 0
-9473 8219 0
-2354 -40 0
-2354 41 0
-2354 -42 0
8184 -2354 0
-1872 46 0
-1872 47 0
-1872 -48 0
7284 -1872 0
-878 34 0
-878 -35 0
-878 -36 0
6400 -878 0
-938 -16 0
-938 -17 0
-938 -18 0
6790 -938 0
-288 -46 0
-288 -47 0
-288 -48 0
5678 -288 0
-8425 34 0
-8425 -35 0
-8425 -36 0
-8425 7809 0
-5991 -58 0
-5991 -59 0
-5991 -60 0
-5991 5837 0
-9603 -70 0
-9603 -71 0
-9603 -72 0
-9603 9515 0
-121 -73 0
-121 -74 0
-121 75 0
8943 -121 0
-7537 -7 0
-7537 -8 0
-7537 -9 0
-7537 7383 0
-8990 13 0
-8990 14 0
-8990 -15 0
-8990 7582 0
-8342 49 0
-8342 50 0
-8342 -51 0
-8342 6274 0
-1841 19 0
-1841 20 0
-1841 -21 0
7253 -1841 0
-9617 -46 0
-9617 47 0
-9617 -48 0
-9617 8451 0
-5971 -61 0
-5971 -62 0
-5971 63 0
6301 -5971 0
-8474 43 0
-8474 -44 0
-8474 -45 0
-8474 7858 0
-2060 16 0
-2060 17 0
-2060 -18 0
7626 -2060 0
-8824 -43 0
-8824 -44 0
-8824 -45 0
-8824 8670 0
-7758 -10 0
-7758 -11 0
-7758 -12 0
-7758 7604 0
-6426 -40 0
-6426 -41 0
-6426 42 0
7130 -6426 0
-1060 -52 0
-1060 -53 0
-1060 -54 0
6934 -1060 0
-2178 40 0
-2178 -41 0
-2178 -42 0
8712 -2178 0
-567 -25 0
-567 -26 0
-567 27 0
9565 -567 0
-8911 40 0
-8911 41 0
-8911 -42 0
-8911 7459 0
-1489 -19 0
-1489 -20 0
-1489 -21 0
7781 -1489 0
-5894 -31 0
-5894 -32 0
-5894 33 0
8578 -5894 0
-2195 25 0
-2195 -26 0
-2195 -27 0
8729 -2195 0
-5534 -73 0
-5534 -74 0
-5534 75 0
8856 -5534 0
-9555 -58 0
-9555 59 0
-9555 -60 0
-9555 8367 0
-6135 28 0
-6135 -29 0
-6135 -30 0
-6135 5541 0
-771 -43 0
-771 -44 0
-771 45 0
9813 -771 0
-6144 55 0
-6144 -56 0
-6144 -57 0
-6144 5550 0
-2004 46 0
-2004 47 0
-2004 -48 0
7482 -2004 0
-406 -70 0
-406 -71 0
-406 -72 0
5818 -406 0
-2183 55 0
-2183 -56 0
-2183 -57 0
8717 -2183 0
-9762 16 0
-9762 -17 0
-9762 -18 0
-9762 9300 0
-1337 25 0
-1337 -26 0
-1337 -27 0
7079 -1337 0
-8620 -22 0
-8620 -23 0
-8620 -24 0
-8620 8466 0
-2359 -55 0
-2359 56 0
-2359 -57 0
8189 -2359 0
-9204 61 0
-9204 -62 0
-9204 -63 0
-9204 8808 0
-2673 73 0
-2673 -74 0
-2673 -75 0
9405 -2673 0
-524 -28 0
-524 -29 0
-524 30 0
9522 -524 0
-8320 46 0
-8320 47 0
-8320 -48 0
-8320 6230 0
-2549 -31 0
-2549 32 0
-2549 -33 0
8555 -2549 0
-935 73 0
-935 -74 0
-935 -75 0
6501 -935 0
-7781 16 0
-7781 17 0
-7781 -18 0
-7781 6549 0
-8904 19 0
-8904 20 0
-8904 -21 0
-8904 7452 0
-8748 10 0
-8748 11 0
-8748 -12 0
-8748 7120 0
-8144 49 0
-8144 50 0
-8144 -51 0
-8144 5966 0
-1030 -28 0
-1030 29 0
-1030 -30 0
5782 -1030 0
-9507 -43 0
-9507 44 0
-9507 -45 0
-9507 8253 0
-5492 -10 0
-5492 -11 0
-5492 12 0
7978 -5492 0
-2138 52 0
-2138 53 0
-2138 -54 0
7748 -2138 0
-6279 -61 0
-6279 -62 0
-6279 -63 0
-6279 6081 0
-9188 13 0
-9188 -14 0
-9188 -15 0
-9188 8792 0
-9580 -67 0
-9580 68 0
-9580 -69 0
-9580 8414 0
-9392 -31 0
-9392 32 0
-9392 -33 0
-9392 8028 0
-6071 28 0
-6071 -29 0
-6071 -30 0
-6071 5433 0
-5754 -73 0
-5754 -74 0
-5754 75 0
8372 -5754 0
-6488 -31 0
-6488 -32 0
-6488 -33 0
-6488 6334 0
-2685 43 0
-2685 -44 0
-2685 -45 0
9439 -2685 0
-1392 -58 0
-1392 -59 0
-1392 -60 0
7574 -1392 0
-992 -46 0
-992 47 0
-992 -48 0
5744 -992 0
-5554 -64 0
-5554 -65 0
-5554 66 0
8062 -5554 0
-1054 -34 0
-1054 -35 0
-1054 -36 0
6928 -1054 0
-673 -13 0
-673 -14 0
-673 15 0
9693 -673 0
-639 -43 0
-639 -44 0
-639 45 0
9659 -639 0
-6331 -19 0
-6331 -20 0
-6331 21 0
9301 -6331 0
-2530 -40 0
-2530 41 0
-2530 -42 0
8514 -2530 0
-737 -73 0
-737 -74 0
-737 -75 0
6545 -737 0
-884 52 0
-884 -53 0
-884 -54 0
6406 -884 0
-7164 -10 0
-7164 -11 0
-7164 -12 0
-7164 6966 0
-9110 -43 0
-9110 -44 0
-9110 -45 0
-9110 9022 0
-8325 61 0
-8325 62 0
-8325 -63 0
-8325 6235 0
-908 58 0
-908 -59 0
-908 -60 0
6452 -908 0
-1979 37 0
-1979 38 0
-1979 -39 0
7435 -1979 0
-2036 76 0
-2036 77 0
-2036 -78 0
7536 -2036 0
-961 -19 0
-961 20 0
-961 -21 0
5713 -961 0
-1939 -49 0
-1939 -50 0
-1939 -51 0
8649 -1939 0
-8244 13 0
-8244 14 0
-8244 -15 0
-8244 6088 0
-8909 34 0
-8909 35 0
-8909 -36 0
-8909 7457 0
-6671 -52 0
-6671 -53 0
-6671 54 0
9773 -6671 0
-8631 -55 0
-8631 -56 0
-8631 -57 0
-8631 8477 0
-189 -13 0
-189 -14 0
-189 15 0
9033 -189 0
-503 -31 0
-503 -32 0
-503 -33 0
6025 -503 0
-1634 58 0
-1634 59 0
-1634 -60 0
6848 -1634 0
-6274 -46 0
-6274 -47 0
-6274 -48 0
-6274 6076 0
-1165 -37 0
-1165 -38 0
-1165 -39 0
7215 -1165 0
-405 -67 0
-405 -68 0
-405 -69 0
5817 -405 0
-2395 -31 0
-2395 32 0
-2395 -33 0
8269 -2395 0
-6362 -43 0
-6362 -44 0
-6362 45 0
7000 -6362 0
-362 -70 0
-362 -71 0
-362 72 0
9228 -362 0
-8436 67 0
-8436 -68 0
-8436 -69 0
-8436 7820 0
-5745 -46 0
-5745 -47 0
-5745 48 0
8363 -5745 0
-6617 -22 0
-6617 -23 0
-6617 24 0
7541 -6617 0
-687 -55 0
-687 -56 0
-687 57 0
9707 -687 0
-6557 -37 0
-6557 -38 0
-6557 39 0
7393 -6557 0
-83 -25 0
-83 -26 0
-83 27 0
8905 -83 0
-5602 -10 0
-5602 -11 0
-5602 -12 0
-5602 5404 0
-6535 -40 0
-6535 -41 0
-6535 42 0
9637 -6535 0
-1962 52 0
-1962 53 0
-1962 -54 0
7418 -1962 0
-9867 -70 0
-9867 -71 0
-9867 -72 0
-9867 9779 0
-272 -64 0
-272 -65 0
-272 66 0
9116 -272 0
-2008 58 0
-2008 59 0
-2008 -60 0
7486 -2008 0
-8238 64 0
-8238 65 0
-8238 -66 0
-8238 6082 0
-6528 -19 0
-6528 -20 0
-6528 21 0
9630 -6528 0
-7390 -25 0
-7390 26 0
-7390 -27 0
-7390 6092 0
-203 -55 0
-203 -56 0
-203 57 0
9047 -203 0
-1796 16 0
-1796 -17 0
-1796 -18 0
8000 -1796 0
-8866 37 0
-8866 38 0
-8866 -39 0
-8866 7370 0
-2636 28 0
-2636 -29 0
-2636 -30 0
9346 -2636 0
-170 -22 0
-170 -23 0
-170 -24 0
5362 -170 0
-6991 -13 0
-6991 14 0
-6991 -15 0
-1293 25 0
-1293 -26 0
-1293 -27 0
7013 -1293 0
-8327 67 0
-8327 68 0
-8327 -69 0
-8327 6237 0
-7243 -49 0
-7243 50 0
-7243 -51 0
-7243 5857 0
-8387 -52 0
-8387 -53 0
-8387 -54 0
-8387 8233 0
-5525 -46 0
-5525 -47 0
-5525 48 0
8847 -5525 0
-6576 -31 0
-6576 -32 0
-6576 33 0
7456 -6576 0
-1630 46 0
-1630 47 0
-1630 -48 0
6844 -1630 0
-2282 -22 0
-2282 23 0
-2282 -24 0
8112 -2282 0
-9707 -52 0
-9707 53 0
-9707 -54 0
-9707 8629 0
-1922 64 0
-1922 65 0
-1922 -66 0
7334 -1922 0
-5452 -25 0
-5452 -26 0
-5452 27 0
8752 -5452 0
-2169 13 0
-2169 -14 0
-2169 -15 0
8703 -2169 0
-904 46 0
-904 -47 0
-904 -48 0
6448 -904 0
-8875 64 0
-8875 65 0
-8875 -66 0
-8875 7379 0
-6932 -43 0
-6932 44 0
-6932 -45 0
-6932 5700 0
-9081 22 0
-9081 23 0
-9081 -24 0
-9081 7761 0
-1178 -76 0
-1178 -77 0
-1178 -78 0
7228 -1178 0
-8300 55 0
-8300 56 0
-8300 -57 0
-8300 6210 0
-6281 -67 0
-6281 -68 0
-6281 -69 0
-6281 6083 0
-151 -31 0
-151 -32 0
-151 33 0
8973 -151 0
-6511 -31 0
-6511 -32 0
-6511 -33 0
-6511 6357 0
-9047 52 0
-9047 53 0
-9047 -54 0
-9047 7683 0
-1388 -46 0
-1388 -47 0
-1388 -48 0
7570 -1388 0
-361 -67 0
-361 -68 0
-361 69 0
9227 -361 0
-6533 -34 0
-6533 -35 0
-6533 36 0
9635 -6533 0
-2568 -22 0
-2568 23 0
-2568 -24 0
8596 -2568 0
-996 -58 0
-996 59 0
-996 -60 0
5748 -996 0
-2345 -13 0
-2345 14 0
-2345 -15 0
8175 -2345 0
-2023 37 0
-2023 38 0
-2023 -39 0
7523 -2023 0
-1992 76 0
-1992 77 0
-1992 -78 0
7448 -1992 0
-7850 16 0
-7850 17 0
-7850 -18 0
-5663 -55 0
-5663 -56 0
-5663 -57 0
-333 -49 0
-333 -50 0
-333 51 0
9199 -333 0
-8291 28 0
-8291 29 0
-8291 -30 0
-8291 6201 0
-8636 -70 0
-8636 -71 0
-8636 -72 0
-8636 8482 0
-6123 58 0
-6123 -59 0
-6123 -60 0
-6123 5507 0
-8453 49 0
-8453 -50 0
-8453 -51 0
-8453 7837 0
-9181 58 0
-9181 -59 0
-9181 -60 0
-9181 8763 0
-6158 28 0
-6158 -29 0
-6158 -30 0
-6158 5564 0
-6750 -25 0
-6750 -26 0
-6750 27 0
7762 -6750 0
-6519 -55 0
-6519 -56 0
-6519 -57 0
-6519 6365 0
-9569 -34 0
-9569 35 0
-9569 -36 0
-9569 8403 0
-7894 25 0
-7894 26 0
-7894 -27 0
-7894 6464 0
-7818 58 0
-7818 59 0
-7818 -60 0
-7818 6366 0
-1948 -76 0
-1948 -77 0
-1948 -78 0
8658 -1948 0
-5564 -25 0
-5564 -26 0
-5564 27 0
5652 -5564 0
-6790 13 0
-6790 -14 0
-6790 -15 0
-6790 6328 0
-6895 64 0
-6895 -65 0
-6895 -66 0
-6895 6521 0
-8920 67 0
-8920 68 0
-8920 -69 0
-8920 7468 0
-9626 -73 0
-9626 74 0
-9626 -75 0
-9626 8460 0
-2105 19 0
-2105 20 0
-2105 -21 0
7693 -2105 0
-6776 -37 0
-6776 -38 0
-6776 -39 0
-6776 6688 0
-5400 -64 0
-5400 -65 0
-5400 66 0
8700 -5400 0
-2027 49 0
-2027 50 0
-2027 -51 0
7527 -2027 0
-2148 -16 0
-2148 -17 0
-2148 -18 0
8990 -2148 0
-8795 19 0
-8795 20 0
-8795 -21 0
-8795 7189 0
-1956 34 0
-1956 35 0
-1956 -36 0
7412 -1956 0
-7418 -49 0
-7418 50 0
-7418 -51 0
-7418 6164 0
-5973 -67 0
-5973 -68 0
-5973 69 0
6303 -5973 0
-6319 -52 0
-6319 -53 0
-6319 54 0
9509 -6319 0
-329 -37 0
-329 -38 0
-329 39 0
9195 -329 0
-6806 61 0
-6806 -62 0
-6806 -63 0
-6806 6344 0
-1431 43 0
-1431 44 0
-1431 -45 0
6601 -1431 0
-6886 37 0
-6886 -38 0
-6886 -39 0
-6886 6512 0
-7031 -10 0
-7031 11 0
-7031 -12 0
-7031 5535 0
-6650 -55 0
-6650 -56 0
-6650 -57 0
-6650 6562 0
-6508 -22 0
-6508 -23 0
-6508 -24 0
-6508 6354 0
-2521 -13 0
-2521 14 0
-2521 -15 0
8505 -2521 0
-9330 -43 0
-9330 44 0
-9330 -45 0
-9330 7922 0
-6701 -10 0
-6701 -11 0
-6701 12 0
7669 -6701 0
-6641 -28 0
-6641 -29 0
-6641 -30 0
-6641 6553 0
-9498 -16 0
-9498 17 0
-9498 -18 0
-9498 8244 0
-198 -40 0
-198 -41 0
-198 42 0
9042 -198 0
-6785 -64 0
-6785 -65 0
-6785 -66 0
-6785 6697 0
-7707 58 0
-7707 -59 0
-7707 -60 0
-7707 7179 0
-5593 -52 0
-5593 -53 0
-5593 -54 0
-5593 5395 0
-9564 -19 0
-9564 20 0
-9564 -21 0
-9564 8398 0
-850 16 0
-850 -17 0
-850 -18 0
6372 -850 0
-1837 -73 0
-1837 -74 0
-1837 -75 0
8437 -1837 0
-5806 -31 0
-5806 -32 0
-5806 33 0
9150 -5806 0
-6252 -49 0
-6252 -50 0
-6252 -51 0
-6252 6054 0
-8950 25 0
-8950 26 0
-8950 -27 0
-8950 7542 0
-9571 -40 0
-9571 41 0
-9571 -42 0
-9571 8405 0
-2098 64 0
-2098 65 0
-2098 -66 0
7664 -2098 0
-292 -58 0
-292 -59 0
-292 -60 0
5682 -292 0
-6025 28 0
-6025 -29 0
-6025 -30 0
-6025 5387 0
-8773 22 0
-8773 23 0
-8773 -24 0
-8773 7167 0
-6034 55 0
-6034 -56 0
-6034 -57 0
-6034 5396 0
-9771 43 0
-9771 -44 0
-9771 -45 0
-9771 9309 0
-682 -40 0
-682 -41 0
-682 42 0
9702 -682 0
-8399 -19 0
-8399 -20 0
-8399 -21 0
-8399 8245 0
-1876 58 0
-1876 59 0
-1876 -60 0
7288 -1876 0
-2475 -73 0
-2475 74 0
-2475 -75 0
8393 -2475 0
-8996 31 0
-8996 32 0
-8996 -33 0
-8996 7588 0
-84 -28 0
-84 -29 0
-84 30 0
8906 -84 0
-293 -61 0
-293 -62 0
-293 -63 0
5683 -293 0
-6345 -61 0
-6345 -62 0
-6345 63 0
9315 -6345 0
-7049 -64 0
-7049 65 0
-7049 -66 0
-7049 5553 0
-9150 28 0
-9150 -29 0
-9150 -30 0
-9150 8688 0
-8598 -25 0
-8598 -26 0
-8598 -27 0
-8598 8444 0
-7479 -34 0
-7479 35 0
-7479 -36 0
-7479 6269 0
-1877 61 0
-1877 62 0
-1877 -63 0
7289 -1877 0
-5517 -22 0
-5517 -23 0
-5517 24 0
8839 -5517 0
-6767 -10 0
-6767 -11 0
-6767 -12 0
-6767 6679 0
-228 -64 0
-228 -65 0
-228 66 0
9072 -228 0
-5391 -37 0
-5391 -38 0
-5391 39 0
8691 -5391 0
-7652 25 0
-7652 -26 0
-7652 -27 0
-7652 7102 0
-9520 -19 0
-9520 20 0
-9520 -21 0
-9520 8310 0
-6719 -64 0
-6719 -65 0
-6719 66 0
7687 -6719 0
-6687 -31 0
-6687 -32 0
-6687 33 0
7611 -6687 0
-1108 -64 0
-1108 65 0
-1108 -66 0
5904 -1108 0
-1144 -40 0
-1144 41 0
-1144 -42 0
5984 -1144 0
-6984 -61 0
-6984 62 0
-6984 -63 0
-6984 5444 0
-8939 58 0
-8939 59 0
-8939 -60 0
-8939 7509 0
-6432 -58 0
-6432 -59 0
-6432 60 0
7136 -6432 0
-1294 28 0
-1294 -29 0
-1294 -30 0
7014 -1294 0
-1449 31 0
-1449 32 0
-1449 -33 0
6619 -1449 0
-8114 25 0
-8114 26 0
-8114 -27 0
-8114 5914 0
-8688 25 0
-8688 26 0
-8688 -27 0
-8688 6994 0
-9527 -40 0
-9527 41 0
-9527 -42 0
-9527 8317 0
-2635 25 0
-2635 -26 0
-2635 -27 0
9345 -2635 0
-9089 46 0
-9089 47 0
-9089 -48 0
-9089 7769 0
-2623 55 0
-2623 -56 0
-2623 -57 0
9333 -2623 0
-8018 -67 0
-8018 -68 0
-8018 -69 0
-8018 7820 0
-6088 10 0
-6088 -11 0
-6088 -12 0
-8191 -58 0
-8191 -59 0
-8191 -60 0
-8191 8103 0
-8311 19 0
-8311 20 0
-8311 -21 0
-8311 6221 0
-6625 -46 0
-6625 -47 0
-6625 48 0
7549 -6625 0
-9699 -28 0
-9699 29 0
-9699 -30 0
-9699 8621 0
-7364 -16 0
-7364 17 0
-7364 -18 0
-7364 6066 0
-7474 -19 0
-7474 20 0
-7474 -21 0
-7474 6264 0
-8379 -28 0
-8379 -29 0
-8379 -30 0
-8379 8225 0
-8665 25 0
-8665 26 0
-8665 -27 0
-8665 6971 0
-6340 -46 0
-6340 -47 0
-6340 48 0
9310 -6340 0
-1232 -40 0
-1232 41 0
-1232 -42 0
6182 -1232 0
-5822 -10 0
-5822 -11 0
-5822 12 0
8462 -5822 0
-8388 -55 0
-8388 -56 0
-8388 -57 0
-8388 8234 0
-388 -16 0
-388 -17 0
-388 -18 0
5800 -388 0
-2235 13 0
-2235 -14 0
-2235 -15 0
8813 -2235 0
-9525 -34 0
-9525 35 0
-9525 -36 0
-9525 8315 0
-9708 -55 0
-9708 56 0
-9708 -57 0
-9708 8630 0
-2379 -49 0
-2379 -50 0
-2379 -51 0
9265 -2379 0
-5737 -22 0
-5737 -23 0
-5737 24 0
8355 -5737 0
-7447 -70 0
-7447 71 0
-7447 -72 0
-7447 6215 0
-6877 10 0
-6877 -11 0
-6877 -12 0
-6877 6503 0
-7040 -37 0
-7040 38 0
-7040 -39 0
-7040 5544 0
-1570 64 0
-1570 65 0
-1570 -66 0
6762 -1570 0
-9039 28 0
-9039 29 0
-9039 -30 0
-9039 7675 0
-6265 -19 0
-6265 -20 0
-6265 -21 0
-6265 6067 0
-7502 -34 0
-7502 35 0
-7502 -36 0
-7502 6292 0
-2270 -52 0
-2270 -53 0
-2270 -54 0
9134 -2270 0
-7840 55 0
-7840 56 0
-7840 -57 0
-7840 5442 0
-6710 -37 0
-6710 -38 0
-6710 39 0
7678 -6710 0
-8299 52 0
-8299 53 0
-8299 -54 0
-8299 6209 0
-8038 -58 0
-8038 -59 0
-8038 -60 0
-8038 7840 0
-9048 55 0
-9048 56 0
-9048 -57 0
-9048 7684 0
-7481 -40 0
-7481 41 0
-7481 -42 0
-7481 6271 0
-997 -61 0
-997 62 0
-997 -63 0
5749 -997 0
-7990 43 0
-7990 44 0
-7990 -45 0
-7990 5658 0
-6684 -22 0
-6684 -23 0
-6684 24 0
7608 -6684 0
-956 -70 0
-956 -71 0
-956 -72 0
6808 -956 0
-6852 67 0
-6852 -68 0
-6852 -69 0
-6852 6434 0
-8282 67 0
-8282 68 0
-8282 -69 0
-8282 6170 0
-8229 37 0
-8229 38 0
-8229 -39 0
-8229 6073 0
-8857 10 0
-8857 11 0
-8857 -12 0
-8857 7361 0
-6482 -13 0
-6482 -14 0
-6482 -15 0
-6482 6328 0
-8521 58 0
-8521 -59 0
-8521 -60 0
-8521 7971 0
-9386 -13 0
-9386 14 0
-9386 -15 0
-9386 8022 0
-6003 -25 0
-6003 -26 0
-6003 -27 0
-6003 5849 0
-2375 -37 0
-2375 -38 0
-2375 -39 0
9261 -2375 0
-1651 43 0
-1651 44 0
-1651 -45 0
6865 -1651 0
-9194 31 0
-9194 -32 0
-9194 -33 0
-9194 8798 0
-7276 -19 0
-7276 20 0
-7276 -21 0
-7276 5956 0
-7111 -49 0
-7111 50 0
-7111 -51 0
-7111 5637 0
-8781 46 0
-8781 47 0
-8781 -48 0
-8781 7175 0
-2494 -64 0
-2494 -65 0
-2494 -66 0
9490 -2494 0
-7456 -28 0
-7456 29 0
-7456 -30 0
-7456 6224 0
-6320 -55 0
-6320 -56 0
-6320 57 0
9510 -6320 0
-1255 -43 0
-1255 44 0
-1255 -45 0
6249 -1255 0
-2078 70 0
-2078 71 0
-2078 -72 0
7644 -2078 0
-7283 -40 0
-7283 41 0
-7283 -42 0
-7283 5963 0
-5904 -61 0
-5904 -62 0
-5904 63 0
8588 -5904 0
-6566 -64 0
-6566 -65 0
-6566 66 0
7402 -6566 0
-6311 -28 0
-6311 -29 0
-6311 30 0
9501 -6311 0
-1237 -55 0
-1237 56 0
-1237 -57 0
6187 -1237 0
-7508 -52 0
-7508 53 0
-7508 -54 0
-7508 6298 0
-7622 61 0
-7622 -62 0
-7622 -63 0
-7622 7006 0
-8811 67 0
-8811 68 0
-8811 -69 0
-8811 7205 0
-808 -22 0
-808 -23 0
-808 24 0
9850 -808 0
-7322 -25 0
-7322 -26 0
-7322 -27 0
-7322 7234 0
-5957 -19 0
-5957 -20 0
-5957 21 0
6287 -5957 0
-9728 -49 0
-9728 -50 0
-9728 -51 0
-9728 9640 0
-1149 -55 0
-1149 56 0
-1149 -57 0
5989 -1149 0
-2077 67 0
-2077 68 0
-2077 -69 0
7643 -2077 0
-2009 61 0
-2009 62 0
-2009 -63 0
7487 -2009 0
-2431 -73 0
-2431 74 0
-2431 -75 0
8305 -2431 0
-2264 -34 0
-2264 -35 0
-2264 -36 0
9128 -2264 0
-5594 -55 0
-5594 -56 0
-5594 -57 0
-5594 5396 0
-2618 40 0
-2618 -41 0
-2618 -42 0
9328 -2618 0
-5585 -28 0
-5585 -29 0
-5585 -30 0
-5585 5387 0
-5658 -40 0
-5658 -41 0
-5658 -42 0
-6695 -55 0
-6695 -56 0
-6695 57 0
7619 -6695 0
-9017 25 0
-9017 26 0
-9017 -27 0
-9017 7609 0
-1707 -13 0
-1707 -14 0
-1707 -15 0
8197 -1707 0
-6649 -52 0
-6649 -53 0
-6649 -54 0
-6649 6561 0
-8568 67 0
-8568 -68 0
-8568 -69 0
-8568 8040 0
-7281 -34 0
-7281 35 0
-7281 -36 0
-7281 5961 0
-5888 -13 0
-5888 -14 0
-5888 15 0
8572 -5888 0
-1179 -13 0
-1179 14 0
-1179 -15 0
6107 -1179 0
-6390 -67 0
-6390 -68 0
-6390 69 0
9382 -6390 0
-6033 52 0
-6033 -53 0
-6033 -54 0
-6033 5395 0
-833 -31 0
-833 -32 0
-833 -33 0
6663 -833 0
-955 -67 0
-955 -68 0
-955 -69 0
6807 -955 0
-1090 -76 0
-1090 77 0
-1090 -78 0
5886 -1090 0
-8415 -67 0
-8415 -68 0
-8415 -69 0
-8415 8261 0
-5933 -16 0
-5933 -17 0
-5933 18 0
8617 -5933 0
-561 -73 0
-561 -74 0
-561 75 0
9559 -561 0
-9402 -61 0
-9402 62 0
-9402 -63 0
-9402 8038 0
-6498 -61 0
-6498 -62 0
-6498 -63 0
-6498 6344 0
-2719 79 0
-2720 2719 80 0
-2721 2720 81 0
-2722 2721 82 0
-2723 2722 83 0
-2724 2723 84 0
-2725 2724 85 0
-2726 2725 86 0
-2727 2726 87 0
-2728 2727 88 0
-2729 2728 89 0
-2730 2729 90 0
-2731 2730 91 0
-2732 2731 92 0
-2733 2732 93 0
-2734 2733 94 0
-2735 2734 95 0
-2736 2735 96 0
-2737 2736 97 0
-2738 2737 98 0
-2739 2738 99 0
-2740 2739 100 0
-2741 101 0
-2742 2741 102 0
-2743 2742 103 0
-2744 2743 104 0
-2745 2744 105 0
-2746 2745 106 0
-2747 2746 107 0
-2748 2747 108 0
-2749 2748 109 0
-2750 2749 110 0
-2751 2750 111 0
-2752 2751 112 0
-2753 2752 113 0
-2754 2753 114 0
-2755 2754 115 0
-2756 2755 116 0
-2757 2756 117 0
-2758 2757 118 0
-2759 2758 119 0
-2760 2759 120 0
-2761 2760 121 0
-2762 2761 122 0
-2763 123 0
-2764 2763 124 0
-2765 2764 125 0
-2766 2765 126 0
-2767 2766 127 0
-2768 2767 128 0
-2769 2768 129 0
-2770 2769 130 0
-2771 2770 131 0
-2772 2771 132 0
-2773 2772 133 0
-2774 2773 134 0
-2775 2774 135 0
-2776 2775 136 0
-2777 2776 137 0
-2778 2777 138 0
-2779 2778 139 0
-2780 2779 140 0
-2781 2780 141 0
-2782 2781 142 0
-2783 2782 143 0
-2784 2783 144 0
-2785 145 0
-2786 2785 146 0
-2787 2786 147 0
-2788 2787 148 0
-2789 2788 149 0
-2790 2789 150 0
-2791 2790 151 0
-2792 2791 152 0
-2793 2792 153 0
-2794 2793 154 0
-2795 2794 155 0
-2796 2795 156 0
-2797 2796 157 0
-2798 2797 158 0
-2799 2798 159 0
-2800 2799 160 0
-2801 2800 161 0
-2802 2801 162 0
-2803 2802 163 0
-2804 2803 164 0
-2805 2804 165 0
-2806 2805 166 0
-2807 167 0
-2808 2807 168 0
-2809 2808 169 0
-2810 2809 170 0
-2811 2810 171 0
-2812 2811 172 0
-2813 2812 173 0
-2814 2813 174 0
-2815 2814 175 0
-2816 2815 176 0
-2817 2816 177 0
-2818 2817 178 0
-2819 2818 179 0
-2820 2819 180 0
-2821 2820 181 0
-2822 2821 182 0
-2823 2822 183 0
-2824 2823 184 0
-2825 2824 185 0
-2826 2825 186 0
-2827 2826 187 0
-2828 2827 188 0
-2829 189 0
-2830 2829 190 0
-2831 2830 191 0
-2832 2831 192 0
-2833 2832 193 0
-2834 2833 194 0
-2835 2834 195 0
-2836 2835 196 0
-2837 2836 197 0
-2838 2837 198 0
-2839 2838 199 0
-2840 2839 200 0
-2841 2840 201 0
-2842 2841 202 0
-2843 2842 203 0
-2844 2843 204 0
-2845 2844 205 0
-2846 2845 206 0
-2847 2846 207 0
-2848 2847 208 0
-2849 2848 209 0
-2850 2849 210 0
-2851 211 0
-2852 2851 212 0
-2853 2852 213 0
-2854 2853 214 0
-2855 2854 215 0
-2856 2855 216 0
-2857 2856 217 0
-2858 2857 218 0
-2859 2858 219 0
-2860 2859 220 0
-2861 2860 221 0
-2862 2861 222 0
-2863 2862 223 0
-2864 2863 224 0
-2865 2864 225 0
-2866 2865 226 0
-2867 2866 227 0
-2868 2867 228 0
-2869 2868 229 0
-2870 2869 230 0
-2871 2870 231 0
-2872 2871 232 0
-2873 233 0
-2874 2873 234 0
-2875 2874 235 0
-2876 2875 236 0
-2877 2876 237 0
-2878 2877 238 0
-2879 2878 239 0
-2880 2879 240 0
-2881 2880 241 0
-2882 2881 242 0
-2883 2882 243 0
-2884 2883 244 0
-2885 2884 245 0
-2886 2885 246 0
-2887 2886 247 0
-2888 2887 248 0
-2889 2888 249 0
-2890 2889 250 0
-2891 2890 251 0
-2892 2891 252 0
-2893 2892 253 0
-2894 2893 254 0
-2895 255 0
-2896 2895 256 0
-2897 2896 257 0
-2898 2897 258 0
-2899 2898 259 0
-2900 2899 260 0
-2901 2900 261 0
-2902 2901 262 0
-2903 2902 263 0
-2904 2903 264 0
-2905 2904 265 0
-2906 2905 266 0
-2907 2906 267 0
-2908 2907 268 0
-2909 2908 269 0
-2910 2909 270 0
-2911 2910 271 0
-2912 2911 272 0
-2913 2912 273 0
-2914 2913 274 0
-2915 2914 275 0
-2916 2915 276 0
-2917 277 0
-2918 2917 278 0
-2919 2918 279 0
-2920 2919 280 0
-2921 2920 281 0
-2922 2921 282 0
-2923 2922 283 0
-2924 2923 284 0
-2925 2924 285 0
-2926 2925 286 0
-2927 2926 287 0
-2928 2927 288 0
-2929 2928 289 0
-2930 2929 290 0
-2931 2930 291 0
-2932 2931 292 0
-2933 2932 293 0
-2934 2933 294 0
-2935 2934 295 0
-2936 2935 296 0
-2937 2936 297 0
-2938 2937 298 0
-2939 299 0
-2940 2939 300 0
-2941 2940 301 0
-2942 2941 302 0
-2943 2942 303 0
-2944 2943 304 0
-2945 2944 305 0
-2946 2945 306 0
-2947 2946 307 0
-2948 2947 308 0
-2949 2948 309 0
-2950 2949 310 0
-2951 2950 311 0
-2952 2951 312 0
-2953 2952 313 0
-2954 2953 314 0
-2955 2954 315 0
-2956 2955 316 0
-2957 2956 317 0
-2958 2957 318 0
-2959 2958 319 0
-2960 2959 320 0
-2961 321 0
-2962 2961 322 0
-2963 2962 323 0
-2964 2963 324 0
-2965 2964 325 0
-2966 2965 326 0
-2967 2966 327 0
-2968 2967 328 0
-2969 2968 329 0
-2970 2969 330 0
-2971 2970 331 0
-2972 2971 332 0
-2973 2972 333 0
-2974 2973 334 0
-2975 2974 335 0
-2976 2975 336 0
-2977 2976 337 0
-2978 2977 338 0
-2979 2978 339 0
-2980 2979 340 0
-2981 2980 341 0
-2982 2981 342 0
-2983 343 0
-2984 2983 344 0
-2985 2984 345 0
-2986 2985 346 0
-2987 2986 347 0
-2988 2987 348 0
-2989 2988 349 0
-2990 2989 350 0
-2991 2990 351 0
-2992 2991 352 0
-2993 2992 353 0
-2994 2993 354 0
-2995 2994 355 0
-2996 2995 356 0
-2997 2996 357 0
-2998 2997 358 0
-2999 2998 359 0
-3000 2999 360 0
-3001 3000 361 0
-3002 3001 362 0
-3003 3002 363 0
-3004 3003 364 0
-3005 365 0
-3006 3005 366 0
-3007 3006 367 0
-3008 3007 368 0
-3009 3008 369 0
-3010 3009 370 0
-3011 3010 371 0
-3012 3011 372 0
-3013 3012 373 0
-3014 3013 374 0
-3015 3014 375 0
-3016 3015 376 0
-3017 3016 377 0
-3018 3017 378 0
-3019 3018 379 0
-3020 3019 380 0
-3021 3020 381 0
-3022 3021 382 0
-3023 3022 383 0
-3024 3023 384 0
-3025 3024 385 0
-3026 3025 386 0
-3027 387 0
-3028 3027 388 0
-3029 3028 389 0
-3030 3029 390 0
-3031 3030 391 0
-3032 3031 392 0
-3033 3032 393 0
-3034 3033 394 0
-3035 3034 395 0
-3036 3035 396 0
-3037 3036 397 0
-3038 3037 398 0
-3039 3038 399 0
-3040 3039 400 0
-3041 3040 401 0
-3042 3041 402 0
-3043 3042 403 0
-3044 3043 404 0
-3045 3044 405 0
-3046 3045 406 0
-3047 3046 407 0
-3048 3047 408 0
-3049 409 0
-3050 3049 410 0
-3051 3050 411 0
-3052 3051 412 0
-3053 3052 413 0
-3054 3053 414 0
-3055 3054 415 0
-3056 3055 416 0
-3057 3056 417 0
-3058 3057 418 0
-3059 3058 419 0
-3060 3059 420 0
-3061 3060 421 0
-3062 3061 422 0
-3063 3062 423 0
-3064 3063 424 0
-3065 3064 425 0
-3066 3065 426 0
-3067 3066 427 0
-3068 3067 428 0
-3069 3068 429 0
-3070 3069 430 0
-3071 431 0
-3072 3071 432 0
-3073 3072 433 0
-3074 3073 434 0
-3075 3074 435 0
-3076 3075 436 0
-3077 3076 437 0
-3078 3077 438 0
-3079 3078 439 0
-3080 3079 440 0
-3081 3080 441 0
-3082 3081 442 0
-3083 3082 443 0
-3084 3083 444 0
-3085 3084 445 0
-3086 3085 446 0
-3087 3086 447 0
-3088 3087 448 0
-3089 3088 449 0
-3090 3089 450 0
-3091 3090 451 0
-3092 3091 452 0
-3093 453 0
-3094 3093 454 0
-3095 3094 455 0
-3096 3095 456 0
-3097 3096 457 0
-3098 3097 458 0
-3099 3098 459 0
-3100 3099 460 0
-3101 3100 461 0
-3102 3101 462 0
-3103 3102 463 0
-3104 3103 464 0
-3105 3104 465 0
-3106 3105 466 0
-3107 3106 467 0
-3108 3107 468 0
-3109 3108 469 0
-3110 3109 470 0
-3111 3110 471 0
-3112 3111 472 0
-3113 3112 473 0
-3114 3113 474 0
-3115 475 0
-3116 3115 476 0
-3117 3116 477 0
-3118 3117 478 0
-3119 3118 479 0
-3120 3119 480 0
-3121 3120 481 0
-3122 3121 482 0
-3123 3122 483 0
-3124 3123 484 0
-3125 3124 485 0
-3126 3125 486 0
-3127 3126 487 0
-3128 3127 488 0
-3129 3128 489 0
-3130 3129 490 0
-3131 3130 491 0
-3132 3131 492 0
-3133 3132 493 0
-3134 3133 494 0
-3135 3134 495 0
-3136 3135 496 0
-3137 497 0
-3138 3137 498 0
-3139 3138 499 0
-3140 3139 500 0
-3141 3140 501 0
-3142 3141 502 0
-3143 3142 503 0
-3144 3143 504 0
-3145 3144 505 0
-3146 3145 506 0
-3147 3146 507 0
-3148 3147 508 0
-3149 3148 509 0
-3150 3149 510 0
-3151 3150 511 0
-3152 3151 512 0
-3153 3152 513 0
-3154 3153 514 0
-3155 3154 515 0
-3156 3155 516 0
-3157 3156 517 0
-3158 3157 518 0
-3159 519 0
-3160 3159 520 0
-3161 3160 521 0
-3162 3161 522 0
-3163 3162 523 0
-3164 3163 524 0
-3165 3164 525 0
-3166 3165 526 0
-3167 3166 527 0
-3168 3167 528 0
-3169 3168 529 0
-3170 3169 530 0
-3171 3170 531 0
-3172 3171 532 0
-3173 3172 533 0
-3174 3173 534 0
-3175 3174 535 0
-3176 3175 536 0
-3177 3176 537 0
-3178 3177 538 0
-3179 3178 539 0
-3180 3179 540 0
-3181 541 0
-3182 3181 542 0
-3183 3182 543 0
-3184 3183 544 0
-3185 3184 545 0
-3186 3185 546 0
-3187 3186 547 0
-3188 3187 548 0
-3189 3188 549 0
-3190 3189 550 0
-3191 3190 551 0
-3192 3191 552 0
-3193 3192 553 0
-3194 3193 554 0
-3195 3194 555 0
-3196 3195 556 0
-3197 3196 557 0
-3198 3197 558 0
-3199 3198 559 0
-3200 3199 560 0
-3201 3200 561 0
-3202 3201 562 0
-3203 563 0
-3204 3203 564 0
-3205 3204 565 0
-3206 3205 566 0
-3207 3206 567 0
-3208 3207 568 0
-3209 3208 569 0
-3210 3209 570 0
-3211 3210 571 0
-3212 3211 572 0
-3213 3212 573 0
-3214 3213 574 0
-3215 3214 575 0
-3216 3215 576 0
-3217 3216 577 0
-3218 3217 578 0
-3219 3218 579 0
-3220 3219 580 0
-3221 3220 581 0
-3222 3221 582 0
-3223 3222 583 0
-3224 3223 584 0
-3225 585 0
-3226 3225 586 0
-3227 3226 587 0
-3228 3227 588 0
-3229 3228 589 0
-3230 3229 590 0
-3231 3230 591 0
-3232 3231 592 0
-3233 3232 593 0
-3234 3233 594 0
-3235 3234 595 0
-3236 3235 596 0
-3237 3236 597 0
-3238 3237 598 0
-3239 3238 599 0
-3240 3239 600 0
-3241 3240 601 0
-3242 3241 602 0
-3243 3242 603 0
-3244 3243 604 0
-3245 3244 605 0
-3246 3245 606 0
-3247 607 0
-3248 3247 608 0
-3249 3248 609 0
-3250 3249 610 0
-3251 3250 611 0
-3252 3251 612 0
-3253 3252 613 0
-3254 3253 614 0
-3255 3254 615 0
-3256 3255 616 0
-3257 3256 617 0
-3258 3257 618 0
-3259 3258 619 0
-3260 3259 620 0
-3261 3260 621 0
-3262 3261 622 0
-3263 3262 623 0
-3264 3263 624 0
-3265 3264 625 0
-3266 3265 626 0
-3267 3266 627 0
-3268 3267 628 0
-3269 629 0
-3270 3269 630 0
-3271 3270 631 0
-3272 3271 632 0
-3273 3272 633 0
-3274 3273 634 0
-3275 3274 635 0
-3276 3275 636 0
-3277 3276 637 0
-3278 3277 638 0
-3279 3278 639 0
-3280 3279 640 0
-3281 3280 641 0
-3282 3281 642 0
-3283 3282 643 0
-3284 3283 644 0
-3285 3284 645 0
-3286 3285 646 0
-3287 3286 647 0
-3288 3287 648 0
-3289 3288 649 0
-3290 3289 650 0
-3291 651 0
-3292 3291 652 0
-3293 3292 653 0
-3294 3293 654 0
-3295 3294 655 0
-3296 3295 656 0
-3297 3296 657 0
-3298 3297 658 0
-3299 3298 659 0
-3300 3299 660 0
-3301 3300 661 0
-3302 3301 662 0
-3303 3302 663 0
-3304 3303 664 0
-3305 3304 665 0
-3306 3305 666 0
-3307 3306 667 0
-3308 3307 668 0
-3309 3308 669 0
-3310 3309 670 0
-3311 3310 671 0
-3312 3311 672 0
-3313 673 0
-3314 3313 674 0
-3315 3314 675 0
-3316 3315 676 0
-3317 3316 677 0
-3318 3317 678 0
-3319 3318 679 0
-3320 3319 680 0
-3321 3320 681 0
-3322 3321 682 0
-3323 3322 683 0
-3324 3323 684 0
-3325 3324 685 0
-3326 3325 686 0
-3327 3326 687 0
-3328 3327 688 0
-3329 3328 689 0
-3330 3329 690 0
-3331 3330 691 0
-3332 3331 692 0
-3333 3332 693 0
-3334 3333 694 0
-3335 695 0
-3336 3335 696 0
-3337 3336 697 0
-3338 3337 698 0
-3339 3338 699 0
-3340 3339 700 0
-3341 3340 701 0
-3342 3341 702 0
-3343 3342 703 0
-3344 3343 704 0
-3345 3344 705 0
-3346 3345 706 0
-3347 3346 707 0
-3348 3347 708 0
-3349 3348 709 0
-3350 3349 710 0
-3351 3350 711 0
-3352 3351 712 0
-3353 3352 713 0
-3354 3353 714 0
-3355 3354 715 0
-3356 3355 716 0
-3357 717 0
-3358 3357 718 0
-3359 3358 719 0
-3360 3359 720 0
-3361 3360 721 0
-3362 3361 722 0
-3363 3362 723 0
-3364 3363 724 0
-3365 3364 725 0
-3366 3365 726 0
-3367 3366 727 0
-3368 3367 728 0
-3369 3368 729 0
-3370 3369 730 0
-3371 3370 731 0
-3372 3371 732 0
-3373 3372 733 0
-3374 3373 734 0
-3375 3374 735 0
-3376 3375 736 0
-3377 3376 737 0
-3378 3377 738 0
-3379 739 0
-3380 3379 740 0
-3381 3380 741 0
-3382 3381 742 0
-3383 3382 743 0
-3384 3383 744 0
-3385 3384 745 0
-3386 3385 746 0
-3387 3386 747 0
-3388 3387 748 0
-3389 3388 749 0
-3390 3389 750 0
-3391 3390 751 0
-3392 3391 752 0
-3393 3392 753 0
-3394 3393 754 0
-3395 3394 755 0
-3396 3395 756 0
-3397 3396 757 0
-3398 3397 758 0
-3399 3398 759 0
-3400 3399 760 0
-3401 761 0
-3402 3401 762 0
-3403 3402 763 0
-3404 3403 764 0
-3405 3404 765 0
-3406 3405 766 0
-3407 3406 767 0
-3408 3407 768 0
-3409 3408 769 0
-3410 3409 770 0
-3411 3410 771 0
-3412 3411 772 0
-3413 3412 773 0
-3414 3413 774 0
-3415 3414 775 0
-3416 3415 776 0
-3417 3416 777 0
-3418 3417 778 0
-3419 3418 779 0
-3420 3419 780 0
-3421 3420 781 0
-3422 3421 782 0
-3423 783 0
-3424 3423 784 0
-3425 3424 785 0
-3426 3425 786 0
-3427 3426 787 0
-3428 3427 788 0
-3429 3428 789 0
-3430 3429 790 0
-3431 3430 791 0
-3432 3431 792 0
-3433 3432 793 0
-3434 3433 794 0
-3435 3434 795 0
-3436 3435 796 0
-3437 3436 797 0
-3438 3437 798 0
-3439 3438 799 0
-3440 3439 800 0
-3441 3440 801 0
-3442 3441 802 0
-3443 3442 803 0
-3444 3443 804 0
-3445 805 0
-3446 3445 806 0
-3447 3446 807 0
-3448 3447 808 0
-3449 3448 809 0
-3450 3449 810 0
-3451 3450 811 0
-3452 3451 812 0
-3453 3452 813 0
-3454 3453 814 0
-3455 3454 815 0
-3456 3455 816 0
-3457 3456 817 0
-3458 3457 818 0
-3459 3458 819 0
-3460 3459 820 0
-3461 3460 821 0
-3462 3461 822 0
-3463 3462 823 0
-3464 3463 824 0
-3465 3464 825 0
-3466 3465 826 0
-3467 827 0
-3468 3467 828 0
-3469 3468 829 0
-3470 3469 830 0
-3471 3470 831 0
-3472 3471 832 0
-3473 3472 833 0
-3474 3473 834 0
-3475 3474 835 0
-3476 3475 836 0
-3477 3476 837 0
-3478 3477 838 0
-3479 3478 839 0
-3480 3479 840 0
-3481 3480 841 0
-3482 3481 842 0
-3483 3482 843 0
-3484 3483 844 0
-3485 3484 845 0
-3486 3485 846 0
-3487 3486 847 0
-3488 3487 848 0
-3489 849 0
-3490 3489 850 0
-3491 3490 851 0
-3492 3491 852 0
-3493 3492 853 0
-3494 3493 854 0
-3495 3494 855 0
-3496 3495 856 0
-3497 3496 857 0
-3498 3497 858 0
-3499 3498 859 0
-3500 3499 860 0
-3501 3500 861 0
-3502 3501 862 0
-3503 3502 863 0
-3504 3503 864 0
-3505 3504 865 0
-3506 3505 866 0
-3507 3506 867 0
-3508 3507 868 0
-3509 3508 869 0
-3510 3509 870 0
-3511 871 0
-3512 3511 872 0
-3513 3512 873 0
-3514 3513 874 0
-3515 3514 875 0
-3516 3515 876 0
-3517 3516 877 0
-3518 3517 878 0
-3519 3518 879 0
-3520 3519 880 0
-3521 3520 881 0
-3522 3521 882 0
-3523 3522 883 0
-3524 3523 884 0
-3525 3524 885 0
-3526 3525 886 0
-3527 3526 887 0
-3528 3527 888 0
-3529 3528 889 0
-3530 3529 890 0
-3531 3530 891 0
-3532 3531 892 0
-3533 893 0
-3534 3533 894 0
-3535 3534 895 0
-3536 3535 896 0
-3537 3536 897 0
-3538 3537 898 0
-3539 3538 899 0
-3540 3539 900 0
-3541 3540 901 0
-3542 3541 902 0
-3543 3542 903 0
-3544 3543 904 0
-3545 3544 905 0
-3546 3545 906 0
-3547 3546 907 0
-3548 3547 908 0
-3549 3548 909 0
-3550 3549 910 0
-3551 3550 911 0
-3552 3551 912 0
-3553 3552 913 0
-3554 3553 914 0
-3555 915 0
-3556 3555 916 0
-3557 3556 917 0
-3558 3557 918 0
-3559 3558 919 0
-3560 3559 920 0
-3561 3560 921 0
-3562 3561 922 0
-3563 3562 923 0
-3564 3563 924 0
-3565 3564 925 0
-3566 3565 926 0
-3567 3566 927 0
-3568 3567 928 0
-3569 3568 929 0
-3570 3569 930 0
-3571 3570 931 0
-3572 3571 932 0
-3573 3572 933 0
-3574 3573 934 0
-3575 3574 935 0
-3576 3575 936 0
-3577 937 0
-3578 3577 938 0
-3579 3578 939 0
-3580 3579 940 0
-3581 3580 941 0
-3582 3581 942 0
-3583 3582 943 0
-3584 3583 944 0
-3585 3584 945 0
-3586 3585 946 0
-3587 3586 947 0
-3588 3587 948 0
-3589 3588 949 0
-3590 3589 950 0
-3591 3590 951 0
-3592 3591 952 0
-3593 3592 953 0
-3594 3593 954 0
-3595 3594 955 0
-3596 3595 956 0
-3597 3596 957 0
-3598 3597 958 0
-3599 959 0
-3600 3599 960 0
-3601 3600 961 0
-3602 3601 962 0
-3603 3602 963 0
-3604 3603 964 0
-3605 3604 965 0
-3606 3605 966 0
-3607 3606 967 0
-3608 3607 968 0
-3609 3608 969 0
-3610 3609 970 0
-3611 3610 971 0
-3612 3611 972 0
-3613 3612 973 0
-3614 3613 974 0
-3615 3614 975 0
-3616 3615 976 0
-3617 3616 977 0
-3618 3617 978 0
-3619 3618 979 0
-3620 3619 980 0
-3621 981 0
-3622 3621 982 0
-3623 3622 983 0
-3624 3623 984 0
-3625 3624 985 0
-3626 3625 986 0
-3627 3626 987 0
-3628 3627 988 0
-3629 3628 989 0
-3630 3629 990 0
-3631 3630 991 0
-3632 3631 992 0
-3633 3632 993 0
-3634 3633 994 0
-3635 3634 995 0
-3636 3635 996 0
-3637 3636 997 0
-3638 3637 998 0
-3639 3638 999 0
-3640 3639 1000 0
-3641 3640 1001 0
-3642 3641 1002 0
-3643 1003 0
-3644 3643 1004 0
-3645 3644 1005 0
-3646 3645 1006 0
-3647 3646 1007 0
-3648 3647 1008 0
-3649 3648 1009 0
-3650 3649 1010 0
-3651 3650 1011 0
-3652 3651 1012 0
-3653 3652 1013 0
-3654 3653 1014 0
-3655 3654 1015 0
-3656 3655 1016 0
-3657 3656 1017 0
-3658 3657 1018 0
-3659 3658 1019 0
-3660 3659 1020 0
-3661 3660 1021 0
-3662 3661 1022 0
-3663 3662 1023 0
-3664 3663 1024 0
-3665 1025 0
-3666 3665 1026 0
-3667 3666 1027 0
-3668 3667 1028 0
-3669 3668 1029 0
-3670 3669 1030 0
-3671 3670 1031 0
-3672 3671 1032 0
-3673 3672 1033 0
-3674 3673 1034 0
-3675 3674 1035 0
-3676 3675 1036 0
-3677 3676 1037 0
-3678 3677 1038 0
-3679 3678 1039 0
-3680 3679 1040 0
-3681 3680 1041 0
-3682 3681 1042 0
-3683 3682 1043 0
-3684 3683 1044 0
-3685 3684 1045 0
-3686 3685 1046 0
-3687 1047 0
-3688 3687 1048 0
-3689 3688 1049 0
-3690 3689 1050 0
-3691 3690 1051 0
-3692 3691 1052 0
-3693 3692 1053 0
-3694 3693 1054 0
-3695 3694 1055 0
-3696 3695 1056 0
-3697 3696 1057 0
-3698 3697 1058 0
-3699 3698 1059 0
-3700 3699 1060 0
-3701 3700 1061 0
-3702 3701 1062 0
-3703 3702 1063 0
-3704 3703 1064 0
-3705 3704 1065 0
-3706 3705 1066 0
-3707 3706 1067 0
-3708 3707 1068 0
-3709 1069 0
-3710 3709 1070 0
-3711 3710 1071 0
-3712 3711 1072 0
-3713 3712 1073 0
-3714 3713 1074 0
-3715 3714 1075 0
-3716 3715 1076 0
-3717 3716 1077 0
-3718 3717 1078 0
-3719 3718 1079 0
-3720 3719 1080 0
-3721 3720 1081 0
-3722 3721 1082 0
-3723 3722 1083 0
-3724 3723 1084 0
-3725 3724 1085 0
-3726 3725 1086 0
-3727 3726 1087 0
-3728 3727 1088 0
-3729 3728 1089 0
-3730 3729 1090 0
-3731 1091 0
-3732 3731 1092 0
-3733 3732 1093 0
-3734 3733 1094 0
-3735 3734 1095 0
-3736 3735 1096 0
-3737 3736 1097 0
-3738 3737 1098 0
-3739 3738 1099 0
-3740 3739 1100 0
-3741 3740 1101 0
-3742 3741 1102 0
-3743 3742 1103 0
-3744 3743 1104 0
-3745 3744 1105 0
-3746 3745 1106 0
-3747 3746 1107 0
-3748 3747 1108 0
-3749 3748 1109 0
-3750 3749 1110 0
-3751 3750 1111 0
-3752 3751 1112 0
-3753 1113 0
-3754 3753 1114 0
-3755 3754 1115 0
-3756 3755 1116 0
-3757 3756 1117 0
-3758 3757 1118 0
-3759 3758 1119 0
-3760 3759 1120 0
-3761 3760 1121 0
-3762 3761 1122 0
-3763 3762 1123 0
-3764 3763 1124 0
-3765 3764 1125 0
-3766 3765 1126 0
-3767 3766 1127 0
-3768 3767 1128 0
-3769 3768 1129 0
-3770 3769 1130 0
-3771 3770 1131 0
-3772 3771 1132 0
-3773 3772 1133 0
-3774 3773 1134 0
-3775 1135 0
-3776 3775 1136 0
-3777 3776 1137 0
-3778 3777 1138 0
-3779 3778 1139 0
-3780 3779 1140 0
-3781 3780 1141 0
-3782 3781 1142 0
-3783 3782 1143 0
-3784 3783 1144 0
-3785 3784 1145 0
-3786 3785 1146 0
-3787 3786 1147 0
-3788 3787 1148 0
-3789 3788 1149 0
-3790 3789 1150 0
-3791 3790 1151 0
-3792 3791 1152 0
-3793 3792 1153 0
-3794 3793 1154 0
-3795 3794 1155 0
-3796 3795 1156 0
-3797 1157 0
-3798 3797 1158 0
-3799 3798 1159 0
-3800 3799 1160 0
-3801 3800 1161 0
-3802 3801 1162 0
-3803 3802 1163 0
-3804 3803 1164 0
-3805 3804 1165 0
-3806 3805 1166 0
-3807 3806 1167 0
-3808 3807 1168 0
-3809 3808 1169 0
-3810 3809 1170 0
-3811 3810 1171 0
-3812 3811 1172 0
-3813 3812 1173 0
-3814 3813 1174 0
-3815 3814 1175 0
-3816 3815 1176 0
-3817 3816 1177 0
-3818 3817 1178 0
-3819 1179 0
-3820 3819 1180 0
-3821 3820 1181 0
-3822 3821 1182 0
-3823 3822 1183 0
-3824 3823 1184 0
-3825 3824 1185 0
-3826 3825 1186 0
-3827 3826 1187 0
-3828 3827 1188 0
-3829 3828 1189 0
-3830 3829 1190 0
-3831 3830 1191 0
-3832 3831 1192 0
-3833 3832 1193 0
-3834 3833 1194 0
-3835 3834 1195 0
-3836 3835 1196 0
-3837 3836 1197 0
-3838 3837 1198 0
-3839 3838 1199 0
-3840 3839 1200 0
-3841 1201 0
-3842 3841 1202 0
-3843 3842 1203 0
-3844 3843 1204 0
-3845 3844 1205 0
-3846 3845 1206 0
-3847 3846 1207 0
-3848 3847 1208 0
-3849 3848 1209 0
-3850 3849 1210 0
-3851 3850 1211 0
-3852 3851 1212 0
-3853 3852 1213 0
-3854 3853 1214 0
-3855 3854 1215 0
-3856 3855 1216 0
-3857 3856 1217 0
-3858 3857 1218 0
-3859 3858 1219 0
-3860 3859 1220 0
-3861 3860 1221 0
-3862 3861 1222 0
-3863 1223 0
-3864 3863 1224 0
-3865 3864 1225 0
-3866 3865 1226 0
-3867 3866 1227 0
-3868 3867 1228 0
-3869 3868 1229 0
-3870 3869 1230 0
-3871 3870 1231 0
-3872 3871 1232 0
-3873 3872 1233 0
-3874 3873 1234 0
-3875 3874 1235 0
-3876 3875 1236 0
-3877 3876 1237 0
-3878 3877 1238 0
-3879 3878 1239 0
-3880 3879 1240 0
-3881 3880 1241 0
-3882 3881 1242 0
-3883 3882 1243 0
-3884 3883 1244 0
-3885 1245 0
-3886 3885 1246 0
-3887 3886 1247 0
-3888 3887 1248 0
-3889 3888 1249 0
-3890 3889 1250 0
-3891 3890 1251 0
-3892 3891 1252 0
-3893 3892 1253 0
-3894 3893 1254 0
-3895 3894 1255 0
-3896 3895 1256 0
-3897 3896 1257 0
-3898 3897 1258 0
-3899 3898 1259 0
-3900 3899 1260 0
-3901 3900 1261 0
-3902 3901 1262 0
-3903 3902 1263 0
-3904 3903 1264 0
-3905 3904 1265 0
-3906 3905 1266 0
-3907 1267 0
-3908 3907 1268 0
-3909 3908 1269 0
-3910 3909 1270 0
-3911 3910 1271 0
-3912 3911 1272 0
-3913 3912 1273 0
-3914 3913 1274 0
-3915 3914 1275 0
-3916 3915 1276 0
-3917 3916 1277 0
-3918 3917 1278 0
-3919 3918 1279 0
-3920 3919 1280 0
-3921 3920 1281 0
-3922 3921 1282 0
-3923 3922 1283 0
-3924 3923 1284 0
-3925 3924 1285 0
-3926 3925 1286 0
-3927 3926 1287 0
-3928 3927 1288 0
-3929 1289 0
-3930 3929 1290 0
-3931 3930 1291 0
-3932 3931 1292 0
-3933 3932 1293 0
-3934 3933 1294 0
-3935 3934 1295 0
-3936 3935 1296 0
-3937 3936 1297 0
-3938 3937 1298 0
-3939 3938 1299 0
-3940 3939 1300 0
-3941 3940 1301 0
-3942 3941 1302 0
-3943 3942 1303 0
-3944 3943 1304 0
-3945 3944 1305 0
-3946 3945 1306 0
-3947 3946 1307 0
-3948 3947 1308 0
-3949 3948 1309 0
-3950 3949 1310 0
-3951 1311 0
-3952 3951 1312 0
-3953 3952 1313 0
-3954 3953 1314 0
-3955 3954 1315 0
-3956 3955 1316 0
-3957 3956 1317 0
-3958 3957 1318 0
-3959 3958 1319 0
-3960 3959 1320 0
-3961 3960 1321 0
-3962 3961 1322 0
-3963 3962 1323 0
-3964 3963 1324 0
-3965 3964 1325 0
-3966 3965 1326 0
-3967 3966 1327 0
-3968 3967 1328 0
-3969 3968 1329 0
-3970 3969 1330 0
-3971 3970 1331 0
-3972 3971 1332 0
-3973 1333 0
-3974 3973 1334 0
-3975 3974 1335 0
-3976 3975 1336 0
-3977 3976 1337 0
-3978 3977 1338 0
-3979 3978 1339 0
-3980 3979 1340 0
-3981 3980 1341 0
-3982 3981 1342 0
-3983 3982 1343 0
-3984 3983 1344 0
-3985 3984 1345 0
-3986 3985 1346 0
-3987 3986 1347 0
-3988 3987 1348 0
-3989 3988 1349 0
-3990 3989 1350 0
-3991 3990 1351 0
-3992 3991 1352 0
-3993 3992 1353 0
-3994 3993 1354 0
-3995 1355 0
-3996 3995 1356 0
-3997 3996 1357 0
-3998 3997 1358 0
-3999 3998 1359 0
-4000 3999 1360 0
-4001 4000 1361 0
-4002 4001 1362 0
-4003 4002 1363 0
-4004 4003 1364 0
-4005 4004 1365 0
-4006 4005 1366 0
-4007 4006 1367 0
-4008 4007 1368 0
-4009 4008 1369 0
-4010 4009 1370 0
-4011 4010 1371 0
-4012 4011 1372 0
-4013 4012 1373 0
-4014 4013 1374 0
-4015 4014 1375 0
-4016 4015 1376 0
-4017 1377 0
-4018 4017 1378 0
-4019 4018 1379 0
-4020 4019 1380 0
-4021 4020 1381 0
-4022 4021 1382 0
-4023 4022 1383 0
-4024 4023 1384 0
-4025 4024 1385 0
-4026 4025 1386 0
-4027 4026 1387 0
-4028 4027 1388 0
-4029 4028 1389 0
-4030 4029 1390 0
-4031 4030 1391 0
-4032 4031 1392 0
-4033 4032 1393 0
-4034 4033 1394 0
-4035 4034 1395 0
-4036 4035 1396 0
-4037 4036 1397 0
-4038 4037 1398 0
-4039 1399 0
-4040 4039 1400 0
-4041 4040 1401 0
-4042 4041 1402 0
-4043 4042 1403 0
-4044 4043 1404 0
-4045 4044 1405 0
-4046 4045 1406 0
-4047 4046 1407 0
-4048 4047 1408 0
-4049 4048 1409 0
-4050 4049 1410 0
-4051 4050 1411 0
-4052 4051 1412 0
-4053 4052 1413 0
-4054 4053 1414 0
-4055 4054 1415 0
-4056 4055 1416 0
-4057 4056 1417 0
-4058 4057 1418 0
-4059 4058 1419 0
-4060 4059 1420 0
-4061 1421 0
-4062 4061 1422 0
-4063 4062 1423 0
-4064 4063 1424 0
-4065 4064 1425 0
-4066 4065 1426 0
-4067 4066 1427 0
-4068 4067 1428 0
-4069 4068 1429 0
-4070 4069 1430 0
-4071 4070 1431 0
-4072 4071 1432 0
-4073 4072 1433 0
-4074 4073 1434 0
-4075 4074 1435 0
-4076 4075 1436 0
-4077 4076 1437 0
-4078 4077 1438 0
-4079 4078 1439 0
-4080 4079 1440 0
-4081 4080 1441 0
-4082 4081 1442 0
-4083 1443 0
-4084 4083 1444 0
-4085 4084 1445 0
-4086 4085 1446 0
-4087 4086 1447 0
-4088 4087 1448 0
-4089 4088 1449 0
-4090 4089 1450 0
-4091 4090 1451 0
-4092 4091 1452 0
-4093 4092 1453 0
-4094 4093 1454 0
-4095 4094 1455 0
-4096 4095 1456 0
-4097 4096 1457 0
-4098 4097 1458 0
-4099 4098 1459 0
-4100 4099 1460 0
-4101 4100 1461 0
-4102 4101 1462 0
-4103 4102 1463 0
-4104 4103 1464 0
-4105 1465 0
-4106 4105 1466 0
-4107 4106 1467 0
-4108 4107 1468 0
-4109 4108 1469 0
-4110 4109 1470 0
-4111 4110 1471 0
-4112 4111 1472 0
-4113 4112 1473 0
-4114 4113 1474 0
-4115 4114 1475 0
-4116 4115 1476 0
-4117 4116 1477 0
-4118 4117 1478 0
-4119 4118 1479 0
-4120 4119 1480 0
-4121 4120 1481 0
-4122 4121 1482 0
-4123 4122 1483 0
-4124 4123 1484 0
-4125 4124 1485 0
-4126 4125 1486 0
-4127 1487 0
-4128 4127 1488 0
-4129 4128 1489 0
-4130 4129 1490 0
-4131 4130 1491 0
-4132 4131 1492 0
-4133 4132 1493 0
-4134 4133 1494 0
-4135 4134 1495 0
-4136 4135 1496 0
-4137 4136 1497 0
-4138 4137 1498 0
-4139 4138 1499 0
-4140 4139 1500 0
-4141 4140 1501 0
-4142 4141 1502 0
-4143 4142 1503 0
-4144 4143 1504 0
-4145 4144 1505 0
-4146 4145 1506 0
-4147 4146 1507 0
-4148 4147 1508 0
-4149 1509 0
-4150 4149 1510 0
-4151 4150 1511 0
-4152 4151 1512 0
-4153 4152 1513 0
-4154 4153 1514 0
-4155 4154 1515 0
-4156 4155 1516 0
-4157 4156 1517 0
-4158 4157 1518 0
-4159 4158 1519 0
-4160 4159 1520 0
-4161 4160 1521 0
-4162 4161 1522 0
-4163 4162 1523 0
-4164 4163 1524 0
-4165 4164 1525 0
-4166 4165 1526 0
-4167 4166 1527 0
-4168 4167 1528 0
-4169 4168 1529 0
-4170 4169 1530 0
-4171 1531 0
-4172 4171 1532 0
-4173 4172 1533 0
-4174 4173 1534 0
-4175 4174 1535 0
-4176 4175 1536 0
-4177 4176 1537 0
-4178 4177 1538 0
-4179 4178 1539 0
-4180 4179 1540 0
-4181 4180 1541 0
-4182 4181 1542 0
-4183 4182 1543 0
-4184 4183 1544 0
-4185 4184 1545 0
-4186 4185 1546 0
-4187 4186 1547 0
-4188 4187 1548 0
-4189 4188 1549 0
-4190 4189 1550 0
-4191 4190 1551 0
-4192 4191 1552 0
-4193 1553 0
-4194 4193 1554 0
-4195 4194 1555 0
-4196 4195 1556 0
-4197 4196 1557 0
-4198 4197 1558 0
-4199 4198 1559 0
-4200 4199 1560 0
-4201 4200 1561 0
-4202 4201 1562 0
-4203 4202 1563 0
-4204 4203 1564 0
-4205 4204 1565 0
-4206 4205 1566 0
-4207 4206 1567 0
-4208 4207 1568 0
-4209 4208 1569 0
-4210 4209 1570 0
-4211 4210 1571 0
-4212 4211 1572 0
-4213 4212 1573 0
-4214 4213 1574 0
-4215 1575 0
-4216 4215 1576 0
-4217 4216 1577 0
-4218 4217 1578 0
-4219 4218 1579 0
-4220 4219 1580 0
-4221 4220 1581 0
-4222 4221 1582 0
-4223 4222 1583 0
-4224 4223 1584 0
-4225 4224 1585 0
-4226 4225 1586 0
-4227 4226 1587 0
-4228 4227 1588 0
-4229 4228 1589 0
-4230 4229 1590 0
-4231 4230 1591 0
-4232 4231 1592 0
-4233 4232 1593 0
-4234 4233 1594 0
-4235 4234 1595 0
-4236 4235 1596 0
-4237 1597 0
-4238 4237 1598 0
-4239 4238 1599 0
-4240 4239 1600 0
-4241 4240 1601 0
-4242 4241 1602 0
-4243 4242 1603 0
-4244 4243 1604 0
-4245 4244 1605 0
-4246 4245 1606 0
-4247 4246 1607 0
-4248 4247 1608 0
-4249 4248 1609 0
-4250 4249 1610 0
-4251 4250 1611 0
-4252 4251 1612 0
-4253 4252 1613 0
-4254 4253 1614 0
-4255 4254 1615 0
-4256 4255 1616 0
-4257 4256 1617 0
-4258 4257 1618 0
-4259 1619 0
-4260 4259 1620 0
-4261 4260 1621 0
-4262 4261 1622 0
-4263 4262 1623 0
-4264 4263 1624 0
-4265 4264 1625 0
-4266 4265 1626 0
-4267 4266 1627 0
-4268 4267 1628 0
-4269 4268 1629 0
-4270 4269 1630 0
-4271 4270 1631 0
-4272 4271 1632 0
-4273 4272 1633 0
-4274 4273 1634 0
-4275 4274 1635 0
-4276 4275 1636 0
-4277 4276 1637 0
-4278 4277 1638 0
-4279 4278 1639 0
-4280 4279 1640 0
-4281 1641 0
-4282 4281 1642 0
-4283 4282 1643 0
-4284 4283 1644 0
-4285 4284 1645 0
-4286 4285 1646 0
-4287 4286 1647 0
-4288 4287 1648 0
-4289 4288 1649 0
-4290 4289 1650 0
-4291 4290 1651 0
-4292 4291 1652 0
-4293 4292 1653 0
-4294 4293 1654 0
-4295 4294 1655 0
-4296 4295 1656 0
-4297 4296 1657 0
-4298 4297 1658 0
-4299 4298 1659 0
-4300 4299 1660 0
-4301 4300 1661 0
-4302 4301 1662 0
-4303 1663 0
-4304 4303 1664 0
-4305 4304 1665 0
-4306 4305 1666 0
-4307 4306 1667 0
-4308 4307 1668 0
-4309 4308 1669 0
-4310 4309 1670 0
-4311 4310 1671 0
-4312 4311 1672 0
-4313 4312 1673 0
-4314 4313 1674 0
-4315 4314 1675 0
-4316 4315 1676 0
-4317 4316 1677 0
-4318 4317 1678 0
-4319 4318 1679 0
-4320 4319 1680 0
-4321 4320 1681 0
-4322 4321 1682 0
-4323 4322 1683 0
-4324 4323 1684 0
-4325 1685 0
-4326 4325 1686 0
-4327 4326 1687 0
-4328 4327 1688 0
-4329 4328 1689 0
-4330 4329 1690 0
-4331 4330 1691 0
-4332 4331 1692 0
-4333 4332 1693 0
-4334 4333 1694 0
-4335 4334 1695 0
-4336 4335 1696 0
-4337 4336 1697 0
-4338 4337 1698 0
-4339 4338 1699 0
-4340 4339 1700 0
-4341 4340 1701 0
-4342 4341 1702 0
-4343 4342 1703 0
-4344 4343 1704 0
-4345 4344 1705 0
-4346 4345 1706 0
-4347 1707 0
-4348 4347 1708 0
-4349 4348 1709 0
-4350 4349 1710 0
-4351 4350 1711 0
-4352 4351 1712 0
-4353 4352 1713 0
-4354 4353 1714 0
-4355 4354 1715 0
-4356 4355 1716 0
-4357 4356 1717 0
-4358 4357 1718 0
-4359 4358 1719 0
-4360 4359 1720 0
-4361 4360 1721 0
-4362 4361 1722 0
-4363 4362 1723 0
-4364 4363 1724 0
-4365 4364 1725 0
-4366 4365 1726 0
-4367 4366 1727 0
-4368 4367 1728 0
-4369 1729 0
-4370 4369 1730 0
-4371 4370 1731 0
-4372 4371 1732 0
-4373 4372 1733 0
-4374 4373 1734 0
-4375 4374 1735 0
-4376 4375 1736 0
-4377 4376 1737 0
-4378 4377 1738 0
-4379 4378 1739 0
-4380 4379 1740 0
-4381 4380 1741 0
-4382 4381 1742 0
-4383 4382 1743 0
-4384 4383 1744 0
-4385 4384 1745 0
-4386 4385 1746 0
-4387 4386 1747 0
-4388 4387 1748 0
-4389 4388 1749 0
-4390 4389 1750 0
-4391 1751 0
-4392 4391 1752 0
-4393 4392 1753 0
-4394 4393 1754 0
-4395 4394 1755 0
-4396 4395 1756 0
-4397 4396 1757 0
-4398 4397 1758 0
-4399 4398 1759 0
-4400 4399 1760 0
-4401 4400 1761 0
-4402 4401 1762 0
-4403 4402 1763 0
-4404 4403 1764 0
-4405 4404 1765 0
-4406 4405 1766 0
-4407 4406 1767 0
-4408 4407 1768 0
-4409 4408 1769 0
-4410 4409 1770 0
-4411 4410 1771 0
-4412 4411 1772 0
-4413 1773 0
-4414 4413 1774 0
-4415 4414 1775 0
-4416 4415 1776 0
-4417 4416 1777 0
-4418 4417 1778 0
-4419 4418 1779 0
-4420 4419 1780 0
-4421 4420 1781 0
-4422 4421 1782 0
-4423 4422 1783 0
-4424 4423 1784 0
-4425 4424 1785 0
-4426 4425 1786 0
-4427 4426 1787 0
-4428 4427 1788 0
-4429 4428 1789 0
-4430 4429 1790 0
-4431 4430 1791 0
-4432 4431 1792 0
-4433 4432 1793 0
-4434 4433 1794 0
-4435 1795 0
-4436 4435 1796 0
-4437 4436 1797 0
-4438 4437 1798 0
-4439 4438 1799 0
-4440 4439 1800 0
-4441 4440 1801 0
-4442 4441 1802 0
-4443 4442 1803 0
-4444 4443 1804 0
-4445 4444 1805 0
-4446 4445 1806 0
-4447 4446 1807 0
-4448 4447 1808 0
-4449 4448 1809 0
-4450 4449 1810 0
-4451 4450 1811 0
-4452 4451 1812 0
-4453 4452 1813 0
-4454 4453 1814 0
-4455 4454 1815 0
-4456 4455 1816 0
-4457 1817 0
-4458 4457 1818 0
-4459 4458 1819 0
-4460 4459 1820 0
-4461 4460 1821 0
-4462 4461 1822 0
-4463 4462 1823 0
-4464 4463 1824 0
-4465 4464 1825 0
-4466 4465 1826 0
-4467 4466 1827 0
-4468 4467 1828 0
-4469 4468 1829 0
-4470 4469 1830 0
-4471 4470 1831 0
-4472 4471 1832 0
-4473 4472 1833 0
-4474 4473 1834 0
-4475 4474 1835 0
-4476 4475 1836 0
-4477 4476 1837 0
-4478 4477 1838 0
-4479 1839 0
-4480 4479 1840 0
-4481 4480 1841 0
-4482 4481 1842 0
-4483 4482 1843 0
-4484 4483 1844 0
-4485 4484 1845 0
-4486 4485 1846 0
-4487 4486 1847 0
-4488 4487 1848 0
-4489 4488 1849 0
-4490 4489 1850 0
-4491 4490 1851 0
-4492 4491 1852 0
-4493 4492 1853 0
-4494 4493 1854 0
-4495 4494 1855 0
-4496 4495 1856 0
-4497 4496 1857 0
-4498 4497 1858 0
-4499 4498 1859 0
-4500 4499 1860 0
-4501 1861 0
-4502 4501 1862 0
-4503 4502 1863 0
-4504 4503 1864 0
-4505 4504 1865 0
-4506 4505 1866 0
-4507 4506 1867 0
-4508 4507 1868 0
-4509 4508 1869 0
-4510 4509 1870 0
-4511 4510 1871 0
-4512 4511 1872 0
-4513 4512 1873 0
-4514 4513 1874 0
-4515 4514 1875 0
-4516 4515 1876 0
-4517 4516 1877 0
-4518 4517 1878 0
-4519 4518 1879 0
-4520 4519 1880 0
-4521 4520 1881 0
-4522 4521 1882 0
-4523 1883 0
-4524 4523 1884 0
-4525 4524 1885 0
-4526 4525 1886 0
-4527 4526 1887 0
-4528 4527 1888 0
-4529 4528 1889 0
-4530 4529 1890 0
-4531 4530 1891 0
-4532 4531 1892 0
-4533 4532 1893 0
-4534 4533 1894 0
-4535 4534 1895 0
-4536 4535 1896 0
-4537 4536 1897 0
-4538 4537 1898 0
-4539 4538 1899 0
-4540 4539 1900 0
-4541 4540 1901 0
-4542 4541 1902 0
-4543 4542 1903 0
-4544 4543 1904 0
-4545 1905 0
-4546 4545 1906 0
-4547 4546 1907 0
-4548 4547 1908 0
-4549 4548 1909 0
-4550 4549 1910 0
-4551 4550 1911 0
-4552 4551 1912 0
-4553 4552 1913 0
-4554 4553 1914 0
-4555 4554 1915 0
-4556 4555 1916 0
-4557 4556 1917 0
-4558 4557 1918 0
-4559 4558 1919 0
-4560 4559 1920 0
-4561 4560 1921 0
-4562 4561 1922 0
-4563 4562 1923 0
-4564 4563 1924 0
-4565 4564 1925 0
-4566 4565 1926 0
-4567 1927 0
-4568 4567 1928 0
-4569 4568 1929 0
-4570 4569 1930 0
-4571 4570 1931 0
-4572 4571 1932 0
-4573 4572 1933 0
-4574 4573 1934 0
-4575 4574 1935 0
-4576 4575 1936 0
-4577 4576 1937 0
-4578 4577 1938 0
-4579 4578 1939 0
-4580 4579 1940 0
-4581 4580 1941 0
-4582 4581 1942 0
-4583 4582 1943 0
-4584 4583 1944 0
-4585 4584 1945 0
-4586 4585 1946 0
-4587 4586 1947 0
-4588 4587 1948 0
-4589 1949 0
-4590 4589 1950 0
-4591 4590 1951 0
-4592 4591 1952 0
-4593 4592 1953 0
-4594 4593 1954 0
-4595 4594 1955 0
-4596 4595 1956 0
-4597 4596 1957 0
-4598 4597 1958 0
-4599 4598 1959 0
-4600 4599 1960 0
-4601 4600 1961 0
-4602 4601 1962 0
-4603 4602 1963 0
-4604 4603 1964 0
-4605 4604 1965 0
-4606 4605 1966 0
-4607 4606 1967 0
-4608 4607 1968 0
-4609 4608 1969 0
-4610 4609 1970 0
-4611 1971 0
-4612 4611 1972 0
-4613 4612 1973 0
-4614 4613 1974 0
-4615 4614 1975 0
-4616 4615 1976 0
-4617 4616 1977 0
-4618 4617 1978 0
-4619 4618 1979 0
-4620 4619 1980 0
-4621 4620 1981 0
-4622 4621 1982 0
-4623 4622 1983 0
-4624 4623 1984 0
-4625 4624 1985 0
-4626 4625 1986 0
-4627 4626 1987 0
-4628 4627 1988 0
-4629 4628 1989 0
-4630 4629 1990 0
-4631 4630 1991 0
-4632 4631 1992 0
-4633 1993 0
-4634 4633 1994 0
-4635 4634 1995 0
-4636 4635 1996 0
-4637 4636 1997 0
-4638 4637 1998 0
-4639 4638 1999 0
-4640 4639 2000 0
-4641 4640 2001 0
-4642 4641 2002 0
-4643 4642 2003 0
-4644 4643 2004 0
-4645 4644 2005 0
-4646 4645 2006 0
-4647 4646 2007 0
-4648 4647 2008 0
-4649 4648 2009 0
-4650 4649 2010 0
-4651 4650 2011 0
-4652 4651 2012 0
-4653 4652 2013 0
-4654 4653 2014 0
-4655 2015 0
-4656 4655 2016 0
-4657 4656 2017 0
-4658 4657 2018 0
-4659 4658 2019 0
-4660 4659 2020 0
-4661 4660 2021 0
-4662 4661 2022 0
-4663 4662 2023 0
-4664 4663 2024 0
-4665 4664 2025 0
-4666 4665 2026 0
-4667 4666 2027 0
-4668 4667 2028 0
-4669 4668 2029 0
-4670 4669 2030 0
-4671 4670 2031 0
-4672 4671 2032 0
-4673 4672 2033 0
-4674 4673 2034 0
-4675 4674 2035 0
-4676 4675 2036 0
-4677 2037 0
-4678 4677 2038 0
-4679 4678 2039 0
-4680 4679 2040 0
-4681 4680 2041 0
-4682 4681 2042 0
-4683 4682 2043 0
-4684 4683 2044 0
-4685 4684 2045 0
-4686 4685 2046 0
-4687 4686 2047 0
-4688 4687 2048 0
-4689 4688 2049 0
-4690 4689 2050 0
-4691 4690 2051 0
-4692 4691 2052 0
-4693 4692 2053 0
-4694 4693 2054 0
-4695 4694 2055 0
-4696 4695 2056 0
-4697 4696 2057 0
-4698 4697 2058 0
-4699 2059 0
-4700 4699 2060 0
-4701 4700 2061 0
-4702 4701 2062 0
-4703 4702 2063 0
-4704 4703 2064 0
-4705 4704 2065 0
-4706 4705 2066 0
-4707 4706 2067 0
-4708 4707 2068 0
-4709 4708 2069 0
-4710 4709 2070 0
-4711 4710 2071 0
-4712 4711 2072 0
-4713 4712 2073 0
-4714 4713 2074 0
-4715 4714 2075 0
-4716 4715 2076 0
-4717 4716 2077 0
-4718 4717 2078 0
-4719 4718 2079 0
-4720 4719 2080 0
-4721 2081 0
-4722 4721 2082 0
-4723 4722 2083 0
-4724 4723 2084 0
-4725 4724 2085 0
-4726 4725 2086 0
-4727 4726 2087 0
-4728 4727 2088 0
-4729 4728 2089 0
-4730 4729 2090 0
-4731 4730 2091 0
-4732 4731 2092 0
-4733 4732 2093 0
-4734 4733 2094 0
-4735 4734 2095 0
-4736 4735 2096 0
-4737 4736 2097 0
-4738 4737 2098 0
-4739 4738 2099 0
-4740 4739 2100 0
-4741 4740 2101 0
-4742 4741 2102 0
-4743 2103 0
-4744 4743 2104 0
-4745 4744 2105 0
-4746 4745 2106 0
-4747 4746 2107 0
-4748 4747 2108 0
-4749 4748 2109 0
-4750 4749 2110 0
-4751 4750 2111 0
-4752 4751 2112 0
-4753 4752 2113 0
-4754 4753 2114 0
-4755 4754 2115 0
-4756 4755 2116 0
-4757 4756 2117 0
-4758 4757 2118 0
-4759 4758 2119 0
-4760 4759 2120 0
-4761 4760 2121 0
-4762 4761 2122 0
-4763 4762 2123 0
-4764 4763 2124 0
-4765 2125 0
-4766 4765 2126 0
-4767 4766 2127 0
-4768 4767 2128 0
-4769 4768 2129 0
-4770 4769 2130 0
-4771 4770 2131 0
-4772 4771 2132 0
-4773 4772 2133 0
-4774 4773 2134 0
-4775 4774 2135 0
-4776 4775 2136 0
-4777 4776 2137 0
-4778 4777 2138 0
-4779 4778 2139 0
-4780 4779 2140 0
-4781 4780 2141 0
-4782 4781 2142 0
-4783 4782 2143 0
-4784 4783 2144 0
-4785 4784 2145 0
-4786 4785 2146 0
-4787 2147 0
-4788 4787 2148 0
-4789 4788 2149 0
-4790 4789 2150 0
-4791 4790 2151 0
-4792 4791 2152 0
-4793 4792 2153 0
-4794 4793 2154 0
-4795 4794 2155 0
-4796 4795 2156 0
-4797 4796 2157 0
-4798 4797 2158 0
-4799 4798 2159 0
-4800 4799 2160 0
-4801 4800 2161 0
-4802 4801 2162 0
-4803 4802 2163 0
-4804 4803 2164 0
-4805 4804 2165 0
-4806 4805 2166 0
-4807 4806 2167 0
-4808 4807 2168 0
-4809 2169 0
-4810 4809 2170 0
-4811 4810 2171 0
-4812 4811 2172 0
-4813 4812 2173 0
-4814 4813 2174 0
-4815 4814 2175 0
-4816 4815 2176 0
-4817 4816 2177 0
-4818 4817 2178 0
-4819 4818 2179 0
-4820 4819 2180 0
-4821 4820 2181 0
-4822 4821 2182 0
-4823 4822 2183 0
-4824 4823 2184 0
-4825 4824 2185 0
-4826 4825 2186 0
-4827 4826 2187 0
-4828 4827 2188 0
-4829 4828 2189 0
-4830 4829 2190 0
-4831 2191 0
-4832 4831 2192 0
-4833 4832 2193 0
-4834 4833 2194 0
-4835 4834 2195 0
-4836 4835 2196 0
-4837 4836 2197 0
-4838 4837 2198 0
-4839 4838 2199 0
-4840 4839 2200 0
-4841 4840 2201 0
-4842 4841 2202 0
-4843 4842 2203 0
-4844 4843 2204 0
-4845 4844 2205 0
-4846 4845 2206 0
-4847 4846 2207 0
-4848 4847 2208 0
-4849 4848 2209 0
-4850 4849 2210 0
-4851 4850 2211 0
-4852 4851 2212 0
-4853 2213 0
-4854 4853 2214 0
-4855 4854 2215 0
-4856 4855 2216 0
-4857 4856 2217 0
-4858 4857 2218 0
-4859 4858 2219 0
-4860 4859 2220 0
-4861 4860 2221 0
-4862 4861 2222 0
-4863 4862 2223 0
-4864 4863 2224 0
-4865 4864 2225 0
-4866 4865 2226 0
-4867 4866 2227 0
-4868 4867 2228 0
-4869 4868 2229 0
-4870 4869 2230 0
-4871 4870 2231 0
-4872 4871 2232 0
-4873 4872 2233 0
-4874 4873 2234 0
-4875 2235 0
-4876 4875 2236 0
-4877 4876 2237 0
-4878 4877 2238 0
-4879 4878 2239 0
-4880 4879 2240 0
-4881 4880 2241 0
-4882 4881 2242 0
-4883 4882 2243 0
-4884 4883 2244 0
-4885 4884 2245 0
-4886 4885 2246 0
-4887 4886 2247 0
-4888 4887 2248 0
-4889 4888 2249 0
-4890 4889 2250 0
-4891 4890 2251 0
-4892 4891 2252 0
-4893 4892 2253 0
-4894 4893 2254 0
-4895 4894 2255 0
-4896 4895 2256 0
-4897 2257 0
-4898 4897 2258 0
-4899 4898 2259 0
-4900 4899 2260 0
-4901 4900 2261 0
-4902 4901 2262 0
-4903 4902 2263 0
-4904 4903 2264 0
-4905 4904 2265 0
-4906 4905 2266 0
-4907 4906 2267 0
-4908 4907 2268 0
-4909 4908 2269 0
-4910 4909 2270 0
-4911 4910 2271 0
-4912 4911 2272 0
-4913 4912 2273 0
-4914 4913 2274 0
-4915 4914 2275 0
-4916 4915 2276 0
-4917 4916 2277 0
-4918 4917 2278 0
-4919 2279 0
-4920 4919 2280 0
-4921 4920 2281 0
-4922 4921 2282 0
-4923 4922 2283 0
-4924 4923 2284 0
-4925 4924 2285 0
-4926 4925 2286 0
-4927 4926 2287 0
-4928 4927 2288 0
-4929 4928 2289 0
-4930 4929 2290 0
-4931 4930 2291 0
-4932 4931 2292 0
-4933 4932 2293 0
-4934 4933 2294 0
-4935 4934 2295 0
-4936 4935 2296 0
-4937 4936 2297 0
-4938 4937 2298 0
-4939 4938 2299 0
-4940 4939 2300 0
-4941 2301 0
-4942 4941 2302 0
-4943 4942 2303 0
-4944 4943 2304 0
-4945 4944 2305 0
-4946 4945 2306 0
-4947 4946 2307 0
-4948 4947 2308 0
-4949 4948 2309 0
-4950 4949 2310 0
-4951 4950 2311 0
-4952 4951 2312 0
-4953 4952 2313 0
-4954 4953 2314 0
-4955 4954 2315 0
-4956 4955 2316 0
-4957 4956 2317 0
-4958 4957 2318 0
-4959 4958 2319 0
-4960 4959 2320 0
-4961 4960 2321 0
-4962 4961 2322 0
-4963 2323 0
-4964 4963 2324 0
-4965 4964 2325 0
-4966 4965 2326 0
-4967 4966 2327 0
-4968 4967 2328 0
-4969 4968 2329 0
-4970 4969 2330 0
-4971 4970 2331 0
-4972 4971 2332 0
-4973 4972 2333 0
-4974 4973 2334 0
-4975 4974 2335 0
-4976 4975 2336 0
-4977 4976 2337 0
-4978 4977 2338 0
-4979 4978 2339 0
-4980 4979 2340 0
-4981 4980 2341 0
-4982 4981 2342 0
-4983 4982 2343 0
-4984 4983 2344 0
-4985 2345 0
-4986 4985 2346 0
-4987 4986 2347 0
-4988 4987 2348 0
-4989 4988 2349 0
-4990 4989 2350 0
-4991 4990 2351 0
-4992 4991 2352 0
-4993 4992 2353 0
-4994 4993 2354 0
-4995 4994 2355 0
-4996 4995 2356 0
-4997 4996 2357 0
-4998 4997 2358 0
-4999 4998 2359 0
-5000 4999 2360 0
-5001 5000 2361 0
-5002 5001 2362 0
-5003 5002 2363 0
-5004 5003 2364 0
-5005 5004 2365 0
-5006 5005 2366 0
-5007 2367 0
-5008 5007 2368 0
-5009 5008 2369 0
-5010 5009 2370 0
-5011 5010 2371 0
-5012 5011 2372 0
-5013 5012 2373 0
-5014 5013 2374 0
-5015 5014 2375 0
-5016 5015 2376 0
-5017 5016 2377 0
-5018 5017 2378 0
-5019 5018 2379 0
-5020 5019 2380 0
-5021 5020 2381 0
-5022 5021 2382 0
-5023 5022 2383 0
-5024 5023 2384 0
-5025 5024 2385 0
-5026 5025 2386 0
-5027 5026 2387 0
-5028 5027 2388 0
-5029 2389 0
-5030 5029 2390 0
-5031 5030 2391 0
-5032 5031 2392 0
-5033 5032 2393 0
-5034 5033 2394 0
-5035 5034 2395 0
-5036 5035 2396 0
-5037 5036 2397 0
-5038 5037 2398 0
-5039 5038 2399 0
-5040 5039 2400 0
-5041 5040 2401 0
-5042 5041 2402 0
-5043 5042 2403 0
-5044 5043 2404 0
-5045 5044 2405 0
-5046 5045 2406 0
-5047 5046 2407 0
-5048 5047 2408 0
-5049 5048 2409 0
-5050 5049 2410 0
-5051 2411 0
-5052 5051 2412 0
-5053 5052 2413 0
-5054 5053 2414 0
-5055 5054 2415 0
-5056 5055 2416 0
-5057 5056 2417 0
-5058 5057 2418 0
-5059 5058 2419 0
-5060 5059 2420 0
-5061 5060 2421 0
-5062 5061 2422 0
-5063 5062 2423 0
-5064 5063 2424 0
-5065 5064 2425 0
-5066 5065 2426 0
-5067 5066 2427 0
-5068 5067 2428 0
-5069 5068 2429 0
-5070 5069 2430 0
-5071 5070 2431 0
-5072 5071 2432 0
-5073 2433 0
-5074 5073 2434 0
-5075 5074 2435 0
-5076 5075 2436 0
-5077 5076 2437 0
-5078 5077 2438 0
-5079 5078 2439 0
-5080 5079 2440 0
-5081 5080 2441 0
-5082 5081 2442 0
-5083 5082 2443 0
-5084 5083 2444 0
-5085 5084 2445 0
-5086 5085 2446 0
-5087 5086 2447 0
-5088 5087 2448 0
-5089 5088 2449 0
-5090 5089 2450 0
-5091 5090 2451 0
-5092 5091 2452 0
-5093 5092 2453 0
-5094 5093 2454 0
-5095 2455 0
-5096 5095 2456 0
-5097 5096 2457 0
-5098 5097 2458 0
-5099 5098 2459 0
-5100 5099 2460 0
-5101 5100 2461 0
-5102 5101 2462 0
-5103 5102 2463 0
-5104 5103 2464 0
-5105 5104 2465 0
-5106 5105 2466 0
-5107 5106 2467 0
-5108 5107 2468 0
-5109 5108 2469 0
-5110 5109 2470 0
-5111 5110 2471 0
-5112 5111 2472 0
-5113 5112 2473 0
-5114 5113 2474 0
-5115 5114 2475 0
-5116 5115 2476 0
-5117 2477 0
-5118 5117 2478 0
-5119 5118 2479 0
-5120 5119 2480 0
-5121 5120 2481 0
-5122 5121 2482 0
-5123 5122 2483 0
-5124 5123 2484 0
-5125 5124 2485 0
-5126 5125 2486 0
-5127 5126 2487 0
-5128 5127 2488 0
-5129 5128 2489 0
-5130 5129 2490 0
-5131 5130 2491 0
-5132 5131 2492 0
-5133 5132 2493 0
-5134 5133 2494 0
-5135 5134 2495 0
-5136 5135 2496 0
-5137 5136 2497 0
-5138 5137 2498 0
-5139 2499 0
-5140 5139 2500 0
-5141 5140 2501 0
-5142 5141 2502 0
-5143 5142 2503 0
-5144 5143 2504 0
-5145 5144 2505 0
-5146 5145 2506 0
-5147 5146 2507 0
-5148 5147 2508 0
-5149 5148 2509 0
-5150 5149 2510 0
-5151 5150 2511 0
-5152 5151 2512 0
-5153 5152 2513 0
-5154 5153 2514 0
-5155 5154 2515 0
-5156 5155 2516 0
-5157 5156 2517 0
-5158 5157 2518 0
-5159 5158 2519 0
-5160 5159 2520 0
-5161 2521 0
-5162 5161 2522 0
-5163 5162 2523 0
-5164 5163 2524 0
-5165 5164 2525 0
-5166 5165 2526 0
-5167 5166 2527 0
-5168 5167 2528 0
-5169 5168 2529 0
-5170 5169 2530 0
-5171 5170 2531 0
-5172 5171 2532 0
-5173 5172 2533 0
-5174 5173 2534 0
-5175 5174 2535 0
-5176 5175 2536 0
-5177 5176 2537 0
-5178 5177 2538 0
-5179 5178 2539 0
-5180 5179 2540 0
-5181 5180 2541 0
-5182 5181 2542 0
-5183 2543 0
-5184 5183 2544 0
-5185 5184 2545 0
-5186 5185 2546 0
-5187 5186 2547 0
-5188 5187 2548 0
-5189 5188 2549 0
-5190 5189 2550 0
-5191 5190 2551 0
-5192 5191 2552 0
-5193 5192 2553 0
-5194 5193 2554 0
-5195 5194 2555 0
-5196 5195 2556 0
-5197 5196 2557 0
-5198 5197 2558 0
-5199 5198 2559 0
-5200 5199 2560 0
-5201 5200 2561 0
-5202 5201 2562 0
-5203 5202 2563 0
-5204 5203 2564 0
-5205 2565 0
-5206 5205 2566 0
-5207 5206 2567 0
-5208 5207 2568 0
-5209 5208 2569 0
-5210 5209 2570 0
-5211 5210 2571 0
-5212 5211 2572 0
-5213 5212 2573 0
-5214 5213 2574 0
-5215 5214 2575 0
-5216 5215 2576 0
-5217 5216 2577 0
-5218 5217 2578 0
-5219 5218 2579 0
-5220 5219 2580 0
-5221 5220 2581 0
-5222 5221 2582 0
-5223 5222 2583 0
-5224 5223 2584 0
-5225 5224 2585 0
-5226 5225 2586 0
-5227 2587 0
-5228 5227 2588 0
-5229 5228 2589 0
-5230 5229 2590 0
-5231 5230 2591 0
-5232 5231 2592 0
-5233 5232 2593 0
-5234 5233 2594 0
-5235 5234 2595 0
-5236 5235 2596 0
-5237 5236 2597 0
-5238 5237 2598 0
-5239 5238 2599 0
-5240 5239 2600 0
-5241 5240 2601 0
-5242 5241 2602 0
-5243 5242 2603 0
-5244 5243 2604 0
-5245 5244 2605 0
-5246 5245 2606 0
-5247 5246 2607 0
-5248 5247 2608 0
-5249 2609 0
-5250 5249 2610 0
-5251 5250 2611 0
-5252 5251 2612 0
-5253 5252 2613 0
-5254 5253 2614 0
-5255 5254 2615 0
-5256 5255 2616 0
-5257 5256 2617 0
-5258 5257 2618 0
-5259 5258 2619 0
-5260 5259 2620 0
-5261 5260 2621 0
-5262 5261 2622 0
-5263 5262 2623 0
-5264 5263 2624 0
-5265 5264 2625 0
-5266 5265 2626 0
-5267 5266 2627 0
-5268 5267 2628 0
-5269 5268 2629 0
-5270 5269 2630 0
-5271 2631 0
-5272 5271 2632 0
-5273 5272 2633 0
-5274 5273 2634 0
-5275 5274 2635 0
-5276 5275 2636 0
-5277 5276 2637 0
-5278 5277 2638 0
-5279 5278 2639 0
-5280 5279 2640 0
-5281 5280 2641 0
-5282 5281 2642 0
-5283 5282 2643 0
-5284 5283 2644 0
-5285 5284 2645 0
-5286 5285 2646 0
-5287 5286 2647 0
-5288 5287 2648 0
-5289 5288 2649 0
-5290 5289 2650 0
-5291 5290 2651 0
-5292 5291 2652 0
-5293 2653 0
-5294 5293 2654 0
-5295 5294 2655 0
-5296 5295 2656 0
-5297 5296 2657 0
-5298 5297 2658 0
-5299 5298 2659 0
-5300 5299 2660 0
-5301 5300 2661 0
-5302 5301 2662 0
-5303 5302 2663 0
-5304 5303 2664 0
-5305 5304 2665 0
-5306 5305 2666 0
-5307 5306 2667 0
-5308 5307 2668 0
-5309 5308 2669 0
-5310 5309 2670 0
-5311 5310 2671 0
-5312 5311 2672 0
-5313 5312 2673 0
-5314 5313 2674 0
-5315 2675 0
-5316 5315 2676 0
-5317 5316 2677 0
-5318 5317 2678 0
-5319 5318 2679 0
-5320 5319 2680 0
-5321 5320 2681 0
-5322 5321 2682 0
-5323 5322 2683 0
-5324 5323 2684 0
-5325 5324 2685 0
-5326 5325 2686 0
-5327 5326 2687 0
-5328 5327 2688 0
-5329 5328 2689 0
-5330 5329 2690 0
-5331 5330 2691 0
-5332 5331 2692 0
-5333 5332 2693 0
-5334 5333 2694 0
-5335 5334 2695 0
-5336 5335 2696 0
-5337 2697 0
-5338 5337 2698 0
-5339 5338 2699 0
-5340 5339 2700 0
-5341 5340 2701 0
-5342 5341 2702 0
-5343 5342 2703 0
-5344 5343 2704 0
-5345 5344 2705 0
-5346 5345 2706 0
-5347 5346 2707 0
-5348 5347 2708 0
-5349 5348 2709 0
-5350 5349 2710 0
-5351 5350 2711 0
-5352 5351 2712 0
-5353 5352 2713 0
-5354 5353 2714 0
-5355 5354 2715 0
-5356 5355 2716 0
-5357 5356 2717 0
-5358 5357 2718 0
-9869 3708 3400 0
-9870 3708 0
-9870 3400 0
-9871 3422 3444 0
-9872 3422 0
-9872 3444 0
-9873 9869 9871 0
-9874 9869 0
-9874 9871 0
-9875 9870 9872 0
-9876 9870 0
-9876 9872 0
-9877 9874 9875 0
-9878 9874 0
-9878 9875 0
-9879 3466 3488 0
-9880 3466 0
-9880 3488 0
-9881 3510 3532 0
-9882 3510 0
-9882 3532 0
-9883 9879 9881 0
-9884 9879 0
-9884 9881 0
-9885 9880 9882 0
-9886 9880 0
-9886 9882 0
-9887 9884 9885 0
-9888 9884 0
-9888 9885 0
-9889 3554 3576 0
-9890 3554 0
-9890 3576 0
-9891 3598 3620 0
-9892 3598 0
-9892 3620 0
-9893 9889 9891 0
-9894 9889 0
-9894 9891 0
-9895 9890 9892 0
-9896 9890 0
-9896 9892 0
-9897 9894 9895 0
-9898 9894 0
-9898 9895 0
-9899 9883 9893 0
-9900 9883 0
-9900 9893 0
-9901 9888 9898 0
-9902 9888 0
-9902 9898 0
-9903 9900 9901 0
-9904 9900 0
-9904 9901 0
-9905 9887 9897 0
-9906 9887 0
-9906 9897 0
-9907 9886 9896 0
-9908 9886 0
-9908 9896 0
-9909 9906 9907 0
-9910 9906 0
-9910 9907 0
-9911 9903 9905 0
-9912 9903 0
-9912 9905 0
-9913 9904 9909 0
-9914 9904 0
-9914 9909 0
-9915 9902 9910 0
-9916 9902 0
-9916 9910 0
-9917 9873 9899 0
-9918 9873 0
-9918 9899 0
-9919 9918 9914 0
-9920 9918 0
-9920 9914 0
-9921 9878 9912 0
-9922 9878 0
-9922 9912 0
-9923 9922 9916 0
-9924 9922 0
-9924 9916 0
-9925 9919 9921 0
-9926 9919 0
-9926 9921 0
-9927 9920 9923 0
-9928 9920 0
-9928 9923 0
-9929 9877 9911 0
-9930 9877 0
-9930 9911 0
-9931 9930 9915 0
-9932 9930 0
-9932 9915 0
-9933 9876 9913 0
-9934 9876 0
-9934 9913 0
-9935 9934 9908 0
-9936 9934 0
-9936 9908 0
-9937 9931 9933 0
-9938 9931 0
-9938 9933 0
-9939 9932 9935 0
-9940 9932 0
-9940 9935 0
-9941 9925 9929 0
-9942 9925 0
-9942 9929 0
-9943 9926 9937 0
-9944 9926 0
-9944 9937 0
-9945 9927 9938 0
-9946 9927 0
-9946 9938 0
-9947 9928 9939 0
-9948 9928 0
-9948 9939 0
-9949 9924 9940 0
-9950 9924 0
-9950 9940 0
-9951 3642 3664 0
-9952 3642 0
-9952 3664 0
-9953 3686 3378 0
-9954 3686 0
-9954 3378 0
-9955 9951 9953 0
-9956 9951 0
-9956 9953 0
-9957 9952 9954 0
-9958 9952 0
-9958 9954 0
-9959 9956 9957 0
-9960 9956 0
-9960 9957 0
-9961 3730 3752 0
-9962 3730 0
-9962 3752 0
-9963 3774 3796 0
-9964 3774 0
-9964 3796 0
-9965 9961 9963 0
-9966 9961 0
-9966 9963 0
-9967 9962 9964 0
-9968 9962 0
-9968 9964 0
-9969 9966 9967 0
-9970 9966 0
-9970 9967 0
-9971 9955 9965 0
-9972 9955 0
-9972 9965 0
-9973 9960 9970 0
-9974 9960 0
-9974 9970 0
-9975 9972 9973 0
-9976 9972 0
-9976 9973 0
-9977 9959 9969 0
-9978 9959 0
-9978 9969 0
-9979 9958 9968 0
-9980 9958 0
-9980 9968 0
-9981 9978 9979 0
-9982 9978 0
-9982 9979 0
-9983 9975 9977 0
-9984 9975 0
-9984 9977 0
-9985 9976 9981 0
-9986 9976 0
-9986 9981 0
-9987 9974 9982 0
-9988 9974 0
-9988 9982 0
-9989 3818 3840 0
-9990 3818 0
-9990 3840 0
-9991 3862 3884 0
-9992 3862 0
-9992 3884 0
-9993 9989 9991 0
-9994 9989 0
-9994 9991 0
-9995 9990 9992 0
-9996 9990 0
-9996 9992 0
-9997 9994 9995 0
-9998 9994 0
-9998 9995 0
-9999 3906 3928 0
-10000 3906 0
-10000 3928 0
-10001 3950 3972 0
-10002 3950 0
-10002 3972 0
-10003 9999 10001 0
-10004 9999 0
-10004 10001 0
-10005 10000 10002 0
-10006 10000 0
-10006 10002 0
-10007 10004 10005 0
-10008 10004 0
-10008 10005 0
-10009 9993 10003 0
-10010 9993 0
-10010 10003 0
-10011 9998 10008 0
-10012 9998 0
-10012 10008 0
-10013 10010 10011 0
-10014 10010 0
-10014 10011 0
-10015 9997 10007 0
-10016 9997 0
-10016 10007 0
-10017 9996 10006 0
-10018 9996 0
-10018 10006 0
-10019 10016 10017 0
-10020 10016 0
-10020 10017 0
-10021 10013 10015 0
-10022 10013 0
-10022 10015 0
-10023 10014 10019 0
-10024 10014 0
-10024 10019 0
-10025 10012 10020 0
-10026 10012 0
-10026 10020 0
-10027 9971 10009 0
-10028 9971 0
-10028 10009 0
-10029 9986 10024 0
-10030 9986 0
-10030 10024 0
-10031 10028 10029 0
-10032 10028 0
-10032 10029 0
-10033 9984 10022 0
-10034 9984 0
-10034 10022 0
-10035 9988 10026 0
-10036 9988 0
-10036 10026 0
-10037 10034 10035 0
-10038 10034 0
-10038 10035 0
-10039 10031 10033 0
-10040 10031 0
-10040 10033 0
-10041 10032 10037 0
-10042 10032 0
-10042 10037 0
-10043 10030 10038 0
-10044 10030 0
-10044 10038 0
-10045 9983 10021 0
-10046 9983 0
-10046 10021 0
-10047 9987 10025 0
-10048 9987 0
-10048 10025 0
-10049 10046 10047 0
-10050 10046 0
-10050 10047 0
-10051 9985 10023 0
-10052 9985 0
-10052 10023 0
-10053 9980 10018 0
-10054 9980 0
-10054 10018 0
-10055 10052 10053 0
-10056 10052 0
-10056 10053 0
-10057 10049 10051 0
-10058 10049 0
-10058 10051 0
-10059 10050 10055 0
-10060 10050 0
-10060 10055 0
-10061 10048 10056 0
-10062 10048 0
-10062 10056 0
-10063 10039 10045 0
-10064 10039 0
-10064 10045 0
-10065 10040 10057 0
-10066 10040 0
-10066 10057 0
-10067 10041 10058 0
-10068 10041 0
-10068 10058 0
-10069 10042 10059 0
-10070 10042 0
-10070 10059 0
-10071 10043 10060 0
-10072 10043 0
-10072 10060 0
-10073 10044 10061 0
-10074 10044 0
-10074 10061 0
-10075 10036 10062 0
-10076 10036 0
-10076 10062 0
-10077 9917 10027 0
-10078 9917 0
-10078 10027 0
-10079 9948 10070 0
-10080 9948 0
-10080 10070 0
-10081 10078 10079 0
-10082 10078 0
-10082 10079 0
-10083 9944 10066 0
-10084 9944 0
-10084 10066 0
-10085 10084 10074 0
-10086 10084 0
-10086 10074 0
-10087 10081 10083 0
-10088 10081 0
-10088 10083 0
-10089 10082 10085 0
-10090 10082 0
-10090 10085 0
-10091 10080 10086 0
-10092 9942 10064 0
-10093 9942 0
-10093 10064 0
-10094 9950 10072 0
-10095 10093 10094 0
-10096 10093 0
-10096 10094 0
-10097 9946 10068 0
-10098 9946 0
-10098 10068 0
-10099 10098 10076 0
-10100 10095 10097 0
-10101 10095 0
-10101 10097 0
-10102 10096 10099 0
-10103 10096 0
-10103 10099 0
-10104 10087 10092 0
-10105 10087 0
-10105 10092 0
-10106 10088 10100 0
-10107 10088 0
-10107 10100 0
-10108 10089 10101 0
-10109 10089 0
-10109 10101 0
-10110 10090 10102 0
-10111 10090 0
-10111 10102 0
-10112 10091 10103 0
-10113 9941 10063 0
-10114 9941 0
-10114 10063 0
-10115 9949 10071 0
-10116 10114 10115 0
-10117 10114 0
-10117 10115 0
-10118 9945 10067 0
-10119 9945 0
-10119 10067 0
-10120 10119 10075 0
-10121 10116 10118 0
-10122 10116 0
-10122 10118 0
-10123 10117 10120 0
-10124 10117 0
-10124 10120 0
-10125 9943 10065 0
-10126 9943 0
-10126 10065 0
-10127 9936 10073 0
-10128 10126 10127 0
-10129 10126 0
-10129 10127 0
-10130 9947 10069 0
-10131 9947 0
-10131 10069 0
-10132 10131 10054 0
-10133 10128 10130 0
-10134 10128 0
-10134 10130 0
-10135 10129 10132 0
-10136 10121 10125 0
-10137 10121 0
-10137 10125 0
-10138 10122 10133 0
-10139 10122 0
-10139 10133 0
-10140 10123 10134 0
-10141 10123 0
-10141 10134 0
-10142 10124 10135 0
-10143 10124 0
-10143 10135 0
-10144 10104 10113 0
-10145 10104 0
-10145 10113 0
-10146 10105 10136 0
-10147 10105 0
-10147 10136 0
-10148 10106 10137 0
-10149 10106 0
-10149 10137 0
-10150 10107 10138 0
-10151 10107 0
-10151 10138 0
-10152 10108 10139 0
-10153 10108 0
-10153 10139 0
-10154 10109 10140 0
-10155 10109 0
-10155 10140 0
-10156 10110 10141 0
-10157 10110 0
-10157 10141 0
-10158 10111 10142 0
-10159 10111 0
-10159 10142 0
-10160 10112 10143 0
-10161 10112 0
-10161 10143 0
-10162 3994 4016 0
-10163 3994 0
-10163 4016 0
-10164 3048 2740 0
-10165 3048 0
-10165 2740 0
-10166 10162 10164 0
-10167 10162 0
-10167 10164 0
-10168 10163 10165 0
-10169 10163 0
-10169 10165 0
-10170 10167 10168 0
-10171 10167 0
-10171 10168 0
-10172 2762 2784 0
-10173 2762 0
-10173 2784 0
-10174 2806 2828 0
-10175 2806 0
-10175 2828 0
-10176 10172 10174 0
-10177 10172 0
-10177 10174 0
-10178 10173 10175 0
-10179 10173 0
-10179 10175 0
-10180 10177 10178 0
-10181 10177 0
-10181 10178 0
-10182 10166 10176 0
-10183 10166 0
-10183 10176 0
-10184 10171 10181 0
-10185 10171 0
-10185 10181 0
-10186 10183 10184 0
-10187 10183 0
-10187 10184 0
-10188 10170 10180 0
-10189 10170 0
-10189 10180 0
-10190 10169 10179 0
-10191 10169 0
-10191 10179 0
-10192 10189 10190 0
-10193 10189 0
-10193 10190 0
-10194 10186 10188 0
-10195 10186 0
-10195 10188 0
-10196 10187 10192 0
-10197 10187 0
-10197 10192 0
-10198 10185 10193 0
-10199 10185 0
-10199 10193 0
-10200 2850 2872 0
-10201 2850 0
-10201 2872 0
-10202 2894 2916 0
-10203 2894 0
-10203 2916 0
-10204 10200 10202 0
-10205 10200 0
-10205 10202 0
-10206 10201 10203 0
-10207 10201 0
-10207 10203 0
-10208 10205 10206 0
-10209 10205 0
-10209 10206 0
-10210 2938 2960 0
-10211 2938 0
-10211 2960 0
-10212 2982 3004 0
-10213 2982 0
-10213 3004 0
-10214 10210 10212 0
-10215 10210 0
-10215 10212 0
-10216 10211 10213 0
-10217 10211 0
-10217 10213 0
-10218 10215 10216 0
-10219 10215 0
-10219 10216 0
-10220 10204 10214 0
-10221 10204 0
-10221 10214 0
-10222 10209 10219 0
-10223 10209 0
-10223 10219 0
-10224 10221 10222 0
-10225 10221 0
-10225 10222 0
-10226 10208 10218 0
-10227 10208 0
-10227 10218 0
-10228 10207 10217 0
-10229 10207 0
-10229 10217 0
-10230 10227 10228 0
-10231 10227 0
-10231 10228 0
-10232 10224 10226 0
-10233 10224 0
-10233 10226 0
-10234 10225 10230 0
-10235 10225 0
-10235 10230 0
-10236 10223 10231 0
-10237 10223 0
-10237 10231 0
-10238 10182 10220 0
-10239 10182 0
-10239 10220 0
-10240 10197 10235 0
-10241 10197 0
-10241 10235 0
-10242 10239 10240 0
-10243 10239 0
-10243 10240 0
-10244 10195 10233 0
-10245 10195 0
-10245 10233 0
-10246 10199 10237 0
-10247 10199 0
-10247 10237 0
-10248 10245 10246 0
-10249 10245 0
-10249 10246 0
-10250 10242 10244 0
-10251 10242 0
-10251 10244 0
-10252 10243 10248 0
-10253 10243 0
-10253 10248 0
-10254 10241 10249 0
-10255 10241 0
-10255 10249 0
-10256 10194 10232 0
-10257 10194 0
-10257 10232 0
-10258 10198 10236 0
-10259 10198 0
-10259 10236 0
-10260 10257 10258 0
-10261 10257 0
-10261 10258 0
-10262 10196 10234 0
-10263 10196 0
-10263 10234 0
-10264 10191 10229 0
-10265 10191 0
-10265 10229 0
-10266 10263 10264 0
-10267 10263 0
-10267 10264 0
-10268 10260 10262 0
-10269 10260 0
-10269 10262 0
-10270 10261 10266 0
-10271 10261 0
-10271 10266 0
-10272 10259 10267 0
-10273 10259 0
-10273 10267 0
-10274 10250 10256 0
-10275 10250 0
-10275 10256 0
-10276 10251 10268 0
-10277 10251 0
-10277 10268 0
-10278 10252 10269 0
-10279 10252 0
-10279 10269 0
-10280 10253 10270 0
-10281 10253 0
-10281 10270 0
-10282 10254 10271 0
-10283 10254 0
-10283 10271 0
-10284 10255 10272 0
-10285 10255 0
-10285 10272 0
-10286 10247 10273 0
-10287 10247 0
-10287 10273 0
-10288 3026 4038 0
-10289 3026 0
-10289 4038 0
-10290 3070 3092 0
-10291 3070 0
-10291 3092 0
-10292 10288 10290 0
-10293 10288 0
-10293 10290 0
-10294 10289 10291 0
-10295 10289 0
-10295 10291 0
-10296 10293 10294 0
-10297 10293 0
-10297 10294 0
-10298 3114 3136 0
-10299 3114 0
-10299 3136 0
-10300 3158 3180 0
-10301 3158 0
-10301 3180 0
-10302 10298 10300 0
-10303 10298 0
-10303 10300 0
-10304 10299 10301 0
-10305 10299 0
-10305 10301 0
-10306 10303 10304 0
-10307 10303 0
-10307 10304 0
-10308 10292 10302 0
-10309 10292 0
-10309 10302 0
-10310 10297 10307 0
-10311 10297 0
-10311 10307 0
-10312 10309 10310 0
-10313 10309 0
-10313 10310 0
-10314 10296 10306 0
-10315 10296 0
-10315 10306 0
-10316 10295 10305 0
-10317 10295 0
-10317 10305 0
-10318 10315 10316 0
-10319 10315 0
-10319 10316 0
-10320 10312 10314 0
-10321 10312 0
-10321 10314 0
-10322 10313 10318 0
-10323 10313 0
-10323 10318 0
-10324 10311 10319 0
-10325 10311 0
-10325 10319 0
-10326 3202 3224 0
-10327 3202 0
-10327 3224 0
-10328 3246 3268 0
-10329 3246 0
-10329 3268 0
-10330 10326 10328 0
-10331 10326 0
-10331 10328 0
-10332 10327 10329 0
-10333 10327 0
-10333 10329 0
-10334 10331 10332 0
-10335 10331 0
-10335 10332 0
-10336 3290 3312 0
-10337 3290 0
-10337 3312 0
-10338 3334 3356 0
-10339 3334 0
-10339 3356 0
-10340 10336 10338 0
-10341 10336 0
-10341 10338 0
-10342 10337 10339 0
-10343 10337 0
-10343 10339 0
-10344 10341 10342 0
-10345 10341 0
-10345 10342 0
-10346 10330 10340 0
-10347 10330 0
-10347 10340 0
-10348 10335 10345 0
-10349 10335 0
-10349 10345 0
-10350 10347 10348 0
-10351 10347 0
-10351 10348 0
-10352 10334 10344 0
-10353 10334 0
-10353 10344 0
-10354 10333 10343 0
-10355 10333 0
-10355 10343 0
-10356 10353 10354 0
-10357 10353 0
-10357 10354 0
-10358 10350 10352 0
-10359 10350 0
-10359 10352 0
-10360 10351 10356 0
-10361 10351 0
-10361 10356 0
-10362 10349 10357 0
-10363 10349 0
-10363 10357 0
-10364 10308 10346 0
-10365 10308 0
-10365 10346 0
-10366 10323 10361 0
-10367 10323 0
-10367 10361 0
-10368 10365 10366 0
-10369 10365 0
-10369 10366 0
-10370 10321 10359 0
-10371 10321 0
-10371 10359 0
-10372 10325 10363 0
-10373 10325 0
-10373 10363 0
-10374 10371 10372 0
-10375 10371 0
-10375 10372 0
-10376 10368 10370 0
-10377 10368 0
-10377 10370 0
-10378 10369 10374 0
-10379 10369 0
-10379 10374 0
-10380 10367 10375 0
-10381 10367 0
-10381 10375 0
-10382 10320 10358 0
-10383 10320 0
-10383 10358 0
-10384 10324 10362 0
-10385 10324 0
-10385 10362 0
-10386 10383 10384 0
-10387 10383 0
-10387 10384 0
-10388 10322 10360 0
-10389 10322 0
-10389 10360 0
-10390 10317 10355 0
-10391 10317 0
-10391 10355 0
-10392 10389 10390 0
-10393 10389 0
-10393 10390 0
-10394 10386 10388 0
-10395 10386 0
-10395 10388 0
-10396 10387 10392 0
-10397 10387 0
-10397 10392 0
-10398 10385 10393 0
-10399 10385 0
-10399 10393 0
-10400 10376 10382 0
-10401 10376 0
-10401 10382 0
-10402 10377 10394 0
-10403 10377 0
-10403 10394 0
-10404 10378 10395 0
-10405 10378 0
-10405 10395 0
-10406 10379 10396 0
-10407 10379 0
-10407 10396 0
-10408 10380 10397 0
-10409 10380 0
-10409 10397 0
-10410 10381 10398 0
-10411 10381 0
-10411 10398 0
-10412 10373 10399 0
-10413 10373 0
-10413 10399 0
-10414 10238 10364 0
-10415 10238 0
-10415 10364 0
-10416 10281 10407 0
-10417 10281 0
-10417 10407 0
-10418 10415 10416 0
-10419 10415 0
-10419 10416 0
-10420 10277 10403 0
-10421 10277 0
-10421 10403 0
-10422 10285 10411 0
-10423 10421 10422 0
-10424 10421 0
-10424 10422 0
-10425 10418 10420 0
-10426 10418 0
-10426 10420 0
-10427 10419 10423 0
-10428 10419 0
-10428 10423 0
-10429 10417 10424 0
-10430 10275 10401 0
-10431 10275 0
-10431 10401 0
-10432 10283 10409 0
-10433 10431 10432 0
-10434 10431 0
-10434 10432 0
-10435 10279 10405 0
-10436 10279 0
-10436 10405 0
-10437 10287 10413 0
-10438 10436 10437 0
-10439 10433 10435 0
-10440 10433 0
-10440 10435 0
-10441 10434 10438 0
-10442 10434 0
-10442 10438 0
-10443 10425 10430 0
-10444 10425 0
-10444 10430 0
-10445 10426 10439 0
-10446 10426 0
-10446 10439 0
-10447 10427 10440 0
-10448 10427 0
-10448 10440 0
-10449 10428 10441 0
-10450 10428 0
-10450 10441 0
-10451 10429 10442 0
-10452 10274 10400 0
-10453 10274 0
-10453 10400 0
-10454 10282 10408 0
-10455 10453 10454 0
-10456 10453 0
-10456 10454 0
-10457 10278 10404 0
-10458 10278 0
-10458 10404 0
-10459 10286 10412 0
-10460 10458 10459 0
-10461 10455 10457 0
-10462 10455 0
-10462 10457 0
-10463 10456 10460 0
-10464 10456 0
-10464 10460 0
-10465 10276 10402 0
-10466 10276 0
-10466 10402 0
-10467 10284 10410 0
-10468 10466 10467 0
-10469 10466 0
-10469 10467 0
-10470 10280 10406 0
-10471 10280 0
-10471 10406 0
-10472 10265 10391 0
-10473 10471 10472 0
-10474 10468 10470 0
-10475 10468 0
-10475 10470 0
-10476 10469 10473 0
-10477 10461 10465 0
-10478 10461 0
-10478 10465 0
-10479 10462 10474 0
-10480 10462 0
-10480 10474 0
-10481 10463 10475 0
-10482 10463 0
-10482 10475 0
-10483 10464 10476 0
-10484 10464 0
-10484 10476 0
-10485 10443 10452 0
-10486 10443 0
-10486 10452 0
-10487 10444 10477 0
-10488 10444 0
-10488 10477 0
-10489 10445 10478 0
-10490 10445 0
-10490 10478 0
-10491 10446 10479 0
-10492 10446 0
-10492 10479 0
-10493 10447 10480 0
-10494 10447 0
-10494 10480 0
-10495 10448 10481 0
-10496 10448 0
-10496 10481 0
-10497 10449 10482 0
-10498 10449 0
-10498 10482 0
-10499 10450 10483 0
-10500 10450 0
-10500 10483 0
-10501 10451 10484 0
-10502 10451 0
-10502 10484 0
-10503 10077 10414 0
-10504 10077 0
-10504 10414 0
-10505 10159 10500 0
-10506 10504 10505 0
-10507 10504 0
-10507 10505 0
-10508 10151 10492 0
-10509 10151 0
-10509 10492 0
-10510 10506 10508 0
-10511 10506 0
-10511 10508 0
-10512 10507 10509 0
-10513 10147 10488 0
-10514 10147 0
-10514 10488 0
-10515 10155 10496 0
-10516 10514 10515 0
-10517 10514 0
-10517 10515 0
-10518 10510 10513 0
-10519 10510 0
-10519 10513 0
-10520 10511 10516 0
-10521 10511 0
-10521 10516 0
-10522 10512 10517 0
-10523 10145 10486 0
-10524 10145 0
-10524 10486 0
-10525 10161 10502 0
-10526 10524 10525 0
-10527 10153 10494 0
-10528 10526 10527 0
-10529 10526 0
-10529 10527 0
-10530 10149 10490 0
-10531 10149 0
-10531 10490 0
-10532 10157 10498 0
-10533 10531 10532 0
-10534 10528 10530 0
-10535 10528 0
-10535 10530 0
-10536 10529 10533 0
-10537 10529 0
-10537 10533 0
-10538 10518 10523 0
-10539 10518 0
-10539 10523 0
-10540 10519 10534 0
-10541 10519 0
-10541 10534 0
-10542 10520 10535 0
-10543 10520 0
-10543 10535 0
-10544 10521 10536 0
-10545 10521 0
-10545 10536 0
-10546 10522 10537 0
-10547 10144 10485 0
-10548 10144 0
-10548 10485 0
-10549 10160 10501 0
-10550 10548 10549 0
-10551 10152 10493 0
-10552 10550 10551 0
-10553 10550 0
-10553 10551 0
-10554 10148 10489 0
-10555 10148 0
-10555 10489 0
-10556 10156 10497 0
-10557 10555 10556 0
-10558 10552 10554 0
-10559 10552 0
-10559 10554 0
-10560 10553 10557 0
-10561 10553 0
-10561 10557 0
-10562 10146 10487 0
-10563 10146 0
-10563 10487 0
-10564 10154 10495 0
-10565 10563 10564 0
-10566 10563 0
-10566 10564 0
-10567 10150 10491 0
-10568 10150 0
-10568 10491 0
-10569 10158 10499 0
-10570 10568 10569 0
-10571 10565 10567 0
-10572 10565 0
-10572 10567 0
-10573 10566 10570 0
-10574 10558 10562 0
-10575 10558 0
-10575 10562 0
-10576 10559 10571 0
-10577 10559 0
-10577 10571 0
-10578 10560 10572 0
-10579 10560 0
-10579 10572 0
-10580 10561 10573 0
-10581 10561 0
-10581 10573 0
-10582 10538 10547 0
-10583 10538 0
-10583 10547 0
-10584 10539 10574 0
-10585 10539 0
-10585 10574 0
-10586 10540 10575 0
-10587 10540 0
-10587 10575 0
-10588 10541 10576 0
-10589 10541 0
-10589 10576 0
-10590 10542 10577 0
-10591 10542 0
-10591 10577 0
-10592 10543 10578 0
-10593 10543 0
-10593 10578 0
-10594 10544 10579 0
-10595 10544 0
-10595 10579 0
-10596 10545 10580 0
-10597 10545 0
-10597 10580 0
-10598 10546 10581 0
-10599 10546 0
-10599 10581 0
-10600 5028 4720 0
-10601 5028 0
-10601 4720 0
-10602 4742 4764 0
-10603 4742 0
-10603 4764 0
-10604 10600 10602 0
-10605 10600 0
-10605 10602 0
-10606 10601 10603 0
-10607 10601 0
-10607 10603 0
-10608 10605 10606 0
-10609 10605 0
-10609 10606 0
-10610 4786 4808 0
-10611 4786 0
-10611 4808 0
-10612 4830 4852 0
-10613 4830 0
-10613 4852 0
-10614 10610 10612 0
-10615 10610 0
-10615 10612 0
-10616 10611 10613 0
-10617 10611 0
-10617 10613 0
-10618 10615 10616 0
-10619 10615 0
-10619 10616 0
-10620 4874 4896 0
-10621 4874 0
-10621 4896 0
-10622 4918 4940 0
-10623 4918 0
-10623 4940 0
-10624 10620 10622 0
-10625 10620 0
-10625 10622 0
-10626 10621 10623 0
-10627 10621 0
-10627 10623 0
-10628 10625 10626 0
-10629 10625 0
-10629 10626 0
-10630 10614 10624 0
-10631 10614 0
-10631 10624 0
-10632 10619 10629 0
-10633 10619 0
-10633 10629 0
-10634 10631 10632 0
-10635 10631 0
-10635 10632 0
-10636 10618 10628 0
-10637 10618 0
-10637 10628 0
-10638 10617 10627 0
-10639 10617 0
-10639 10627 0
-10640 10637 10638 0
-10641 10637 0
-10641 10638 0
-10642 10634 10636 0
-10643 10634 0
-10643 10636 0
-10644 10635 10640 0
-10645 10635 0
-10645 10640 0
-10646 10633 10641 0
-10647 10633 0
-10647 10641 0
-10648 10604 10630 0
-10649 10604 0
-10649 10630 0
-10650 10649 10645 0
-10651 10649 0
-10651 10645 0
-10652 10609 10643 0
-10653 10609 0
-10653 10643 0
-10654 10653 10647 0
-10655 10653 0
-10655 10647 0
-10656 10650 10652 0
-10657 10650 0
-10657 10652 0
-10658 10651 10654 0
-10659 10651 0
-10659 10654 0
-10660 10608 10642 0
-10661 10608 0
-10661 10642 0
-10662 10661 10646 0
-10663 10661 0
-10663 10646 0
-10664 10607 10644 0
-10665 10607 0
-10665 10644 0
-10666 10665 10639 0
-10667 10665 0
-10667 10639 0
-10668 10662 10664 0
-10669 10662 0
-10669 10664 0
-10670 10663 10666 0
-10671 10663 0
-10671 10666 0
-10672 10656 10660 0
-10673 10656 0
-10673 10660 0
-10674 10657 10668 0
-10675 10657 0
-10675 10668 0
-10676 10658 10669 0
-10677 10658 0
-10677 10669 0
-10678 10659 10670 0
-10679 10659 0
-10679 10670 0
-10680 10655 10671 0
-10681 10655 0
-10681 10671 0
-10682 4962 4984 0
-10683 4962 0
-10683 4984 0
-10684 5006 4698 0
-10685 5006 0
-10685 4698 0
-10686 10682 10684 0
-10687 10682 0
-10687 10684 0
-10688 10683 10685 0
-10689 10683 0
-10689 10685 0
-10690 10687 10688 0
-10691 10687 0
-10691 10688 0
-10692 5050 5072 0
-10693 5050 0
-10693 5072 0
-10694 5094 5116 0
-10695 5094 0
-10695 5116 0
-10696 10692 10694 0
-10697 10692 0
-10697 10694 0
-10698 10693 10695 0
-10699 10693 0
-10699 10695 0
-10700 10697 10698 0
-10701 10697 0
-10701 10698 0
-10702 10686 10696 0
-10703 10686 0
-10703 10696 0
-10704 10691 10701 0
-10705 10691 0
-10705 10701 0
-10706 10703 10704 0
-10707 10703 0
-10707 10704 0
-10708 10690 10700 0
-10709 10690 0
-10709 10700 0
-10710 10689 10699 0
-10711 10689 0
-10711 10699 0
-10712 10709 10710 0
-10713 10709 0
-10713 10710 0
-10714 10706 10708 0
-10715 10706 0
-10715 10708 0
-10716 10707 10712 0
-10717 10707 0
-10717 10712 0
-10718 10705 10713 0
-10719 10705 0
-10719 10713 0
-10720 5138 5160 0
-10721 5138 0
-10721 5160 0
-10722 5182 5204 0
-10723 5182 0
-10723 5204 0
-10724 10720 10722 0
-10725 10720 0
-10725 10722 0
-10726 10721 10723 0
-10727 10721 0
-10727 10723 0
-10728 10725 10726 0
-10729 10725 0
-10729 10726 0
-10730 5226 5248 0
-10731 5226 0
-10731 5248 0
-10732 5270 5292 0
-10733 5270 0
-10733 5292 0
-10734 10730 10732 0
-10735 10730 0
-10735 10732 0
-10736 10731 10733 0
-10737 10731 0
-10737 10733 0
-10738 10735 10736 0
-10739 10735 0
-10739 10736 0
-10740 10724 10734 0
-10741 10724 0
-10741 10734 0
-10742 10729 10739 0
-10743 10729 0
-10743 10739 0
-10744 10741 10742 0
-10745 10741 0
-10745 10742 0
-10746 10728 10738 0
-10747 10728 0
-10747 10738 0
-10748 10727 10737 0
-10749 10727 0
-10749 10737 0
-10750 10747 10748 0
-10751 10747 0
-10751 10748 0
-10752 10744 10746 0
-10753 10744 0
-10753 10746 0
-10754 10745 10750 0
-10755 10745 0
-10755 10750 0
-10756 10743 10751 0
-10757 10743 0
-10757 10751 0
-10758 10702 10740 0
-10759 10702 0
-10759 10740 0
-10760 10717 10755 0
-10761 10717 0
-10761 10755 0
-10762 10759 10760 0
-10763 10759 0
-10763 10760 0
-10764 10715 10753 0
-10765 10715 0
-10765 10753 0
-10766 10719 10757 0
-10767 10719 0
-10767 10757 0
-10768 10765 10766 0
-10769 10765 0
-10769 10766 0
-10770 10762 10764 0
-10771 10762 0
-10771 10764 0
-10772 10763 10768 0
-10773 10763 0
-10773 10768 0
-10774 10761 10769 0
-10775 10761 0
-10775 10769 0
-10776 10714 10752 0
-10777 10714 0
-10777 10752 0
-10778 10718 10756 0
-10779 10718 0
-10779 10756 0
-10780 10777 10778 0
-10781 10777 0
-10781 10778 0
-10782 10716 10754 0
-10783 10716 0
-10783 10754 0
-10784 10711 10749 0
-10785 10711 0
-10785 10749 0
-10786 10783 10784 0
-10787 10783 0
-10787 10784 0
-10788 10780 10782 0
-10789 10780 0
-10789 10782 0
-10790 10781 10786 0
-10791 10781 0
-10791 10786 0
-10792 10779 10787 0
-10793 10779 0
-10793 10787 0
-10794 10770 10776 0
-10795 10770 0
-10795 10776 0
-10796 10771 10788 0
-10797 10771 0
-10797 10788 0
-10798 10772 10789 0
-10799 10772 0
-10799 10789 0
-10800 10773 10790 0
-10801 10773 0
-10801 10790 0
-10802 10774 10791 0
-10803 10774 0
-10803 10791 0
-10804 10775 10792 0
-10805 10775 0
-10805 10792 0
-10806 10767 10793 0
-10807 10767 0
-10807 10793 0
-10808 10648 10758 0
-10809 10648 0
-10809 10758 0
-10810 10679 10801 0
-10811 10679 0
-10811 10801 0
-10812 10809 10810 0
-10813 10809 0
-10813 10810 0
-10814 10675 10797 0
-10815 10675 0
-10815 10797 0
-10816 10815 10805 0
-10817 10815 0
-10817 10805 0
-10818 10812 10814 0
-10819 10812 0
-10819 10814 0
-10820 10813 10816 0
-10821 10813 0
-10821 10816 0
-10822 10811 10817 0
-10823 10673 10795 0
-10824 10673 0
-10824 10795 0
-10825 10681 10803 0
-10826 10824 10825 0
-10827 10824 0
-10827 10825 0
-10828 10677 10799 0
-10829 10677 0
-10829 10799 0
-10830 10829 10807 0
-10831 10826 10828 0
-10832 10826 0
-10832 10828 0
-10833 10827 10830 0
-10834 10827 0
-10834 10830 0
-10835 10818 10823 0
-10836 10818 0
-10836 10823 0
-10837 10819 10831 0
-10838 10819 0
-10838 10831 0
-10839 10820 10832 0
-10840 10820 0
-10840 10832 0
-10841 10821 10833 0
-10842 10821 0
-10842 10833 0
-10843 10822 10834 0
-10844 10672 10794 0
-10845 10672 0
-10845 10794 0
-10846 10680 10802 0
-10847 10845 10846 0
-10848 10845 0
-10848 10846 0
-10849 10676 10798 0
-10850 10676 0
-10850 10798 0
-10851 10850 10806 0
-10852 10847 10849 0
-10853 10847 0
-10853 10849 0
-10854 10848 10851 0
-10855 10848 0
-10855 10851 0
-10856 10674 10796 0
-10857 10674 0
-10857 10796 0
-10858 10667 10804 0
-10859 10857 10858 0
-10860 10857 0
-10860 10858 0
-10861 10678 10800 0
-10862 10678 0
-10862 10800 0
-10863 10862 10785 0
-10864 10859 10861 0
-10865 10859 0
-10865 10861 0
-10866 10860 10863 0
-10867 10852 10856 0
-10868 10852 0
-10868 10856 0
-10869 10853 10864 0
-10870 10853 0
-10870 10864 0
-10871 10854 10865 0
-10872 10854 0
-10872 10865 0
-10873 10855 10866 0
-10874 10855 0
-10874 10866 0
-10875 10835 10844 0
-10876 10835 0
-10876 10844 0
-10877 10836 10867 0
-10878 10836 0
-10878 10867 0
-10879 10837 10868 0
-10880 10837 0
-10880 10868 0
-10881 10838 10869 0
-10882 10838 0
-10882 10869 0
-10883 10839 10870 0
-10884 10839 0
-10884 10870 0
-10885 10840 10871 0
-10886 10840 0
-10886 10871 0
-10887 10841 10872 0
-10888 10841 0
-10888 10872 0
-10889 10842 10873 0
-10890 10842 0
-10890 10873 0
-10891 10843 10874 0
-10892 10843 0
-10892 10874 0
-10893 5314 5336 0
-10894 5314 0
-10894 5336 0
-10895 4368 4060 0
-10896 4368 0
-10896 4060 0
-10897 10893 10895 0
-10898 10893 0
-10898 10895 0
-10899 10894 10896 0
-10900 10894 0
-10900 10896 0
-10901 10898 10899 0
-10902 10898 0
-10902 10899 0
-10903 4082 4104 0
-10904 4082 0
-10904 4104 0
-10905 4126 4148 0
-10906 4126 0
-10906 4148 0
-10907 10903 10905 0
-10908 10903 0
-10908 10905 0
-10909 10904 10906 0
-10910 10904 0
-10910 10906 0
-10911 10908 10909 0
-10912 10908 0
-10912 10909 0
-10913 10897 10907 0
-10914 10897 0
-10914 10907 0
-10915 10902 10912 0
-10916 10902 0
-10916 10912 0
-10917 10914 10915 0
-10918 10914 0
-10918 10915 0
-10919 10901 10911 0
-10920 10901 0
-10920 10911 0
-10921 10900 10910 0
-10922 10900 0
-10922 10910 0
-10923 10920 10921 0
-10924 10920 0
-10924 10921 0
-10925 10917 10919 0
-10926 10917 0
-10926 10919 0
-10927 10918 10923 0
-10928 10918 0
-10928 10923 0
-10929 10916 10924 0
-10930 10916 0
-10930 10924 0
-10931 4170 4192 0
-10932 4170 0
-10932 4192 0
-10933 4214 4236 0
-10934 4214 0
-10934 4236 0
-10935 10931 10933 0
-10936 10931 0
-10936 10933 0
-10937 10932 10934 0
-10938 10932 0
-10938 10934 0
-10939 10936 10937 0
-10940 10936 0
-10940 10937 0
-10941 4258 4280 0
-10942 4258 0
-10942 4280 0
-10943 4302 4324 0
-10944 4302 0
-10944 4324 0
-10945 10941 10943 0
-10946 10941 0
-10946 10943 0
-10947 10942 10944 0
-10948 10942 0
-10948 10944 0
-10949 10946 10947 0
-10950 10946 0
-10950 10947 0
-10951 10935 10945 0
-10952 10935 0
-10952 10945 0
-10953 10940 10950 0
-10954 10940 0
-10954 10950 0
-10955 10952 10953 0
-10956 10952 0
-10956 10953 0
-10957 10939 10949 0
-10958 10939 0
-10958 10949 0
-10959 10938 10948 0
-10960 10938 0
-10960 10948 0
-10961 10958 10959 0
-10962 10958 0
-10962 10959 0
-10963 10955 10957 0
-10964 10955 0
-10964 10957 0
-10965 10956 10961 0
-10966 10956 0
-10966 10961 0
-10967 10954 10962 0
-10968 10954 0
-10968 10962 0
-10969 10913 10951 0
-10970 10913 0
-10970 10951 0
-10971 10928 10966 0
-10972 10928 0
-10972 10966 0
-10973 10970 10971 0
-10974 10970 0
-10974 10971 0
-10975 10926 10964 0
-10976 10926 0
-10976 10964 0
-10977 10930 10968 0
-10978 10930 0
-10978 10968 0
-10979 10976 10977 0
-10980 10976 0
-10980 10977 0
-10981 10973 10975 0
-10982 10973 0
-10982 10975 0
-10983 10974 10979 0
-10984 10974 0
-10984 10979 0
-10985 10972 10980 0
-10986 10972 0
-10986 10980 0
-10987 10925 10963 0
-10988 10925 0
-10988 10963 0
-10989 10929 10967 0
-10990 10929 0
-10990 10967 0
-10991 10988 10989 0
-10992 10988 0
-10992 10989 0
-10993 10927 10965 0
-10994 10927 0
-10994 10965 0
-10995 10922 10960 0
-10996 10922 0
-10996 10960 0
-10997 10994 10995 0
-10998 10994 0
-10998 10995 0
-10999 10991 10993 0
-11000 10991 0
-11000 10993 0
-11001 10992 10997 0
-11002 10992 0
-11002 10997 0
-11003 10990 10998 0
-11004 10990 0
-11004 10998 0
-11005 10981 10987 0
-11006 10981 0
-11006 10987 0
-11007 10982 10999 0
-11008 10982 0
-11008 10999 0
-11009 10983 11000 0
-11010 10983 0
-11010 11000 0
-11011 10984 11001 0
-11012 10984 0
-11012 11001 0
-11013 10985 11002 0
-11014 10985 0
-11014 11002 0
-11015 10986 11003 0
-11016 10986 0
-11016 11003 0
-11017 10978 11004 0
-11018 10978 0
-11018 11004 0
-11019 4346 5358 0
-11020 4346 0
-11020 5358 0
-11021 4390 4412 0
-11022 4390 0
-11022 4412 0
-11023 11019 11021 0
-11024 11019 0
-11024 11021 0
-11025 11020 11022 0
-11026 11020 0
-11026 11022 0
-11027 11024 11025 0
-11028 11024 0
-11028 11025 0
-11029 4434 4456 0
-11030 4434 0
-11030 4456 0
-11031 4478 4500 0
-11032 4478 0
-11032 4500 0
-11033 11029 11031 0
-11034 11029 0
-11034 11031 0
-11035 11030 11032 0
-11036 11030 0
-11036 11032 0
-11037 11034 11035 0
-11038 11034 0
-11038 11035 0
-11039 11023 11033 0
-11040 11023 0
-11040 11033 0
-11041 11028 11038 0
-11042 11028 0
-11042 11038 0
-11043 11040 11041 0
-11044 11040 0
-11044 11041 0
-11045 11027 11037 0
-11046 11027 0
-11046 11037 0
-11047 11026 11036 0
-11048 11026 0
-11048 11036 0
-11049 11046 11047 0
-11050 11046 0
-11050 11047 0
-11051 11043 11045 0
-11052 11043 0
-11052 11045 0
-11053 11044 11049 0
-11054 11044 0
-11054 11049 0
-11055 11042 11050 0
-11056 11042 0
-11056 11050 0
-11057 4522 4544 0
-11058 4522 0
-11058 4544 0
-11059 4566 4588 0
-11060 4566 0
-11060 4588 0
-11061 11057 11059 0
-11062 11057 0
-11062 11059 0
-11063 11058 11060 0
-11064 11058 0
-11064 11060 0
-11065 11062 11063 0
-11066 11062 0
-11066 11063 0
-11067 4610 4632 0
-11068 4610 0
-11068 4632 0
-11069 4654 4676 0
-11070 4654 0
-11070 4676 0
-11071 11067 11069 0
-11072 11067 0
-11072 11069 0
-11073 11068 11070 0
-11074 11068 0
-11074 11070 0
-11075 11072 11073 0
-11076 11072 0
-11076 11073 0
-11077 11061 11071 0
-11078 11061 0
-11078 11071 0
-11079 11066 11076 0
-11080 11066 0
-11080 11076 0
-11081 11078 11079 0
-11082 11078 0
-11082 11079 0
-11083 11065 11075 0
-11084 11065 0
-11084 11075 0
-11085 11064 11074 0
-11086 11064 0
-11086 11074 0
-11087 11084 11085 0
-11088 11084 0
-11088 11085 0
-11089 11081 11083 0
-11090 11081 0
-11090 11083 0
-11091 11082 11087 0
-11092 11082 0
-11092 11087 0
-11093 11080 11088 0
-11094 11080 0
-11094 11088 0
-11095 11039 11077 0
-11096 11039 0
-11096 11077 0
-11097 11054 11092 0
-11098 11054 0
-11098 11092 0
-11099 11096 11097 0
-11100 11096 0
-11100 11097 0
-11101 11052 11090 0
-11102 11052 0
-11102 11090 0
-11103 11056 11094 0
-11104 11056 0
-11104 11094 0
-11105 11102 11103 0
-11106 11102 0
-11106 11103 0
-11107 11099 11101 0
-11108 11099 0
-11108 11101 0
-11109 11100 11105 0
-11110 11100 0
-11110 11105 0
-11111 11098 11106 0
-11112 11098 0
-11112 11106 0
-11113 11051 11089 0
-11114 11051 0
-11114 11089 0
-11115 11055 11093 0
-11116 11055 0
-11116 11093 0
-11117 11114 11115 0
-11118 11114 0
-11118 11115 0
-11119 11053 11091 0
-11120 11053 0
-11120 11091 0
-11121 11048 11086 0
-11122 11048 0
-11122 11086 0
-11123 11120 11121 0
-11124 11120 0
-11124 11121 0
-11125 11117 11119 0
-11126 11117 0
-11126 11119 0
-11127 11118 11123 0
-11128 11118 0
-11128 11123 0
-11129 11116 11124 0
-11130 11116 0
-11130 11124 0
-11131 11107 11113 0
-11132 11107 0
-11132 11113 0
-11133 11108 11125 0
-11134 11108 0
-11134 11125 0
-11135 11109 11126 0
-11136 11109 0
-11136 11126 0
-11137 11110 11127 0
-11138 11110 0
-11138 11127 0
-11139 11111 11128 0
-11140 11111 0
-11140 11128 0
-11141 11112 11129 0
-11142 11112 0
-11142 11129 0
-11143 11104 11130 0
-11144 11104 0
-11144 11130 0
-11145 10969 11095 0
-11146 10969 0
-11146 11095 0
-11147 11012 11138 0
-11148 11012 0
-11148 11138 0
-11149 11146 11147 0
-11150 11146 0
-11150 11147 0
-11151 11008 11134 0
-11152 11008 0
-11152 11134 0
-11153 11016 11142 0
-11154 11152 11153 0
-11155 11152 0
-11155 11153 0
-11156 11149 11151 0
-11157 11149 0
-11157 11151 0
-11158 11150 11154 0
-11159 11150 0
-11159 11154 0
-11160 11148 11155 0
-11161 11006 11132 0
-11162 11006 0
-11162 11132 0
-11163 11014 11140 0
-11164 11162 11163 0
-11165 11162 0
-11165 11163 0
-11166 11010 11136 0
-11167 11010 0
-11167 11136 0
-11168 11018 11144 0
-11169 11167 11168 0
-11170 11164 11166 0
-11171 11164 0
-11171 11166 0
-11172 11165 11169 0
-11173 11165 0
-11173 11169 0
-11174 11156 11161 0
-11175 11156 0
-11175 11161 0
-11176 11157 11170 0
-11177 11157 0
-11177 11170 0
-11178 11158 11171 0
-11179 11158 0
-11179 11171 0
-11180 11159 11172 0
-11181 11159 0
-11181 11172 0
-11182 11160 11173 0
-11183 11005 11131 0
-11184 11005 0
-11184 11131 0
-11185 11013 11139 0
-11186 11184 11185 0
-11187 11184 0
-11187 11185 0
-11188 11009 11135 0
-11189 11009 0
-11189 11135 0
-11190 11017 11143 0
-11191 11189 11190 0
-11192 11186 11188 0
-11193 11186 0
-11193 11188 0
-11194 11187 11191 0
-11195 11187 0
-11195 11191 0
-11196 11007 11133 0
-11197 11007 0
-11197 11133 0
-11198 11015 11141 0
-11199 11197 11198 0
-11200 11197 0
-11200 11198 0
-11201 11011 11137 0
-11202 11011 0
-11202 11137 0
-11203 10996 11122 0
-11204 11202 11203 0
-11205 11199 11201 0
-11206 11199 0
-11206 11201 0
-11207 11200 11204 0
-11208 11192 11196 0
-11209 11192 0
-11209 11196 0
-11210 11193 11205 0
-11211 11193 0
-11211 11205 0
-11212 11194 11206 0
-11213 11194 0
-11213 11206 0
-11214 11195 11207 0
-11215 11195 0
-11215 11207 0
-11216 11174 11183 0
-11217 11174 0
-11217 11183 0
-11218 11175 11208 0
-11219 11175 0
-11219 11208 0
-11220 11176 11209 0
-11221 11176 0
-11221 11209 0
-11222 11177 11210 0
-11223 11177 0
-11223 11210 0
-11224 11178 11211 0
-11225 11178 0
-11225 11211 0
-11226 11179 11212 0
-11227 11179 0
-11227 11212 0
-11228 11180 11213 0
-11229 11180 0
-11229 11213 0
-11230 11181 11214 0
-11231 11181 0
-11231 11214 0
-11232 11182 11215 0
-11233 11182 0
-11233 11215 0
-11234 10808 11145 0
-11235 10808 0
-11235 11145 0
-11236 10890 11231 0
-11237 11235 11236 0
-11238 11235 0
-11238 11236 0
-11239 10882 11223 0
-11240 10882 0
-11240 11223 0
-11241 11237 11239 0
-11242 11237 0
-11242 11239 0
-11243 11238 11240 0
-11244 10878 11219 0
-11245 10878 0
-11245 11219 0
-11246 10886 11227 0
-11247 11245 11246 0
-11248 11245 0
-11248 11246 0
-11249 11241 11244 0
-11250 11241 0
-11250 11244 0
-11251 11242 11247 0
-11252 11242 0
-11252 11247 0
-11253 11243 11248 0
-11254 10876 11217 0
-11255 10876 0
-11255 11217 0
-11256 10892 11233 0
-11257 11255 11256 0
-11258 10884 11225 0
-11259 11257 11258 0
-11260 11257 0
-11260 11258 0
-11261 10880 11221 0
-11262 10880 0
-11262 11221 0
-11263 10888 11229 0
-11264 11262 11263 0
-11265 11259 11261 0
-11266 11259 0
-11266 11261 0
-11267 11260 11264 0
-11268 11260 0
-11268 11264 0
-11269 11249 11254 0
-11270 11249 0
-11270 11254 0
-11271 11250 11265 0
-11272 11250 0
-11272 11265 0
-11273 11251 11266 0
-11274 11251 0
-11274 11266 0
-11275 11252 11267 0
-11276 11252 0
-11276 11267 0
-11277 11253 11268 0
-11278 10875 11216 0
-11279 10875 0
-11279 11216 0
-11280 10891 11232 0
-11281 11279 11280 0
-11282 10883 11224 0
-11283 11281 11282 0
-11284 11281 0
-11284 11282 0
-11285 10879 11220 0
-11286 10879 0
-11286 11220 0
-11287 10887 11228 0
-11288 11286 11287 0
-11289 11283 11285 0
-11290 11283 0
-11290 11285 0
-11291 11284 11288 0
-11292 11284 0
-11292 11288 0
-11293 10877 11218 0
-11294 10877 0
-11294 11218 0
-11295 10885 11226 0
-11296 11294 11295 0
-11297 11294 0
-11297 11295 0
-11298 10881 11222 0
-11299 10881 0
-11299 11222 0
-11300 10889 11230 0
-11301 11299 11300 0
-11302 11296 11298 0
-11303 11296 0
-11303 11298 0
-11304 11297 11301 0
-11305 11289 11293 0
-11306 11289 0
-11306 11293 0
-11307 11290 11302 0
-11308 11290 0
-11308 11302 0
-11309 11291 11303 0
-11310 11291 0
-11310 11303 0
-11311 11292 11304 0
-11312 11292 0
-11312 11304 0
-11313 11269 11278 0
-11314 11269 0
-11314 11278 0
-11315 11270 11305 0
-11316 11270 0
-11316 11305 0
-11317 11271 11306 0
-11318 11271 0
-11318 11306 0
-11319 11272 11307 0
-11320 11272 0
-11320 11307 0
-11321 11273 11308 0
-11322 11273 0
-11322 11308 0
-11323 11274 11309 0
-11324 11274 0
-11324 11309 0
-11325 11275 11310 0
-11326 11275 0
-11326 11310 0
-11327 11276 11311 0
-11328 11276 0
-11328 11311 0
-11329 11277 11312 0
-11330 11277 0
-11330 11312 0
-11331 10503 11234 0
-11332 10503 0
-11332 11234 0
-11333 10597 11328 0
-11334 11332 11333 0
-11335 11332 0
-11335 11333 0
-11336 10589 11320 0
-11337 10589 0
-11337 11320 0
-11338 11334 11336 0
-11339 11334 0
-11339 11336 0
-11340 11335 11337 0
-11341 10585 11316 0
-11342 10585 0
-11342 11316 0
-11343 10593 11324 0
-11344 11342 11343 0
-11345 11342 0
-11345 11343 0
-11346 11338 11341 0
-11347 11338 0
-11347 11341 0
-11348 11339 11344 0
-11349 11339 0
-11349 11344 0
-11350 11340 11345 0
-11351 10583 11314 0
-11352 10583 0
-11352 11314 0
-11353 10599 11330 0
-11354 11352 11353 0
-11355 10591 11322 0
-11356 11354 11355 0
-11357 11354 0
-11357 11355 0
-11358 10587 11318 0
-11359 10587 0
-11359 11318 0
-11360 10595 11326 0
-11361 11359 11360 0
-11362 11356 11358 0
-11363 11356 0
-11363 11358 0
-11364 11357 11361 0
-11365 11357 0
-11365 11361 0
-11366 11346 11351 0
-11367 11346 0
-11367 11351 0
-11368 11347 11362 0
-11369 11347 0
-11369 11362 0
-11370 11348 11363 0
-11371 11348 0
-11371 11363 0
-11372 11349 11364 0
-11373 11349 0
-11373 11364 0
-11374 11350 11365 0
-11375 10582 11313 0
-11376 10582 0
-11376 11313 0
-11377 10598 11329 0
-11378 11376 11377 0
-11379 10590 11321 0
-11380 11378 11379 0
-11381 11378 0
-11381 11379 0
-11382 10586 11317 0
-11383 10586 0
-11383 11317 0
-11384 10594 11325 0
-11385 11383 11384 0
-11386 11380 11382 0
-11387 11380 0
-11387 11382 0
-11388 11381 11385 0
-11389 11381 0
-11389 11385 0
-11390 10584 11315 0
-11391 10584 0
-11391 11315 0
-11392 10592 11323 0
-11393 11391 11392 0
-11394 11391 0
-11394 11392 0
-11395 10588 11319 0
-11396 10588 0
-11396 11319 0
-11397 10596 11327 0
-11398 11396 11397 0
-11399 11393 11395 0
-11400 11393 0
-11400 11395 0
-11401 11394 11398 0
-11402 11386 11390 0
-11403 11386 0
-11403 11390 0
-11404 11387 11399 0
-11405 11387 0
-11405 11399 0
-11406 11388 11400 0
-11407 11388 0
-11407 11400 0
-11408 11389 11401 0
-11409 11389 0
-11409 11401 0
-11410 11366 11375 0
-11411 11366 0
-11411 11375 0
-11412 11367 11402 0
-11413 11367 0
-11413 11402 0
-11414 11368 11403 0
-11415 11368 0
-11415 11403 0
-11416 11369 11404 0
-11417 11369 0
-11417 11404 0
-11418 11370 11405 0
-11419 11370 0
-11419 11405 0
-11420 11371 11406 0
-11421 11371 0
-11421 11406 0
-11422 11372 11407 0
-11423 11372 0
-11423 11407 0
-11424 11373 11408 0
-11425 11373 0
-11425 11408 0
-11426 11374 11409 0
-11427 11374 0
-11427 11409 0
11331 0
11410 0
11411 0
11412 0
11413 0
11414 0
11415 0
11416 0
11417 0
11418 0
11419 0
11420 0
11421 0
11422 0
11423 0
11424 0
11425 0
11426 0
11427 0
-1 0
-2 0
-3 0
4 0
-5 0
-6 0
-7 0
8 0
-9 0
10 0
11 0
-12 0
-13 0
-14 0
15 0
